ChemSculptor single point calculation                                   
SP        RCAM-B3LYP                                                  6-31G(d)            
Number of atoms                            I                2
Info1-9                                    I   N=           9
          12          12           0           0           0         110
           1          18           2
Full Title                                 C   N=           4
ChemSculptor single point calculation           
Route                                      C   N=           3
#p CAM-B3LYP/6-31G* SP scfcyc=200   
Charge                                     I                0
Multiplicity                               I                1
Number of electrons                        I               16
Number of alpha electrons                  I                8
Number of beta electrons                   I                8
Number of basis functions                  I               30
Number of independent functions            I               30
Number of point charges in /Mol/           I                0
Number of translation vectors              I                0
Atomic numbers                             I   N=           2
           8           8
Nuclear charges                            R   N=           2
  8.00000000E+00  8.00000000E+00
Current cartesian coordinates              R   N=           6
  0.00000000E+00  0.00000000E+00  1.09755293E+00  1.31838984E-16  0.00000000E+00
 -1.09755293E+00
Number of symbols in /Mol/                 I                0
Force Field                                I                0
Atom Types                                 C   N=           2
                        
Int Atom Types                             I   N=           2
           0           0
MM charges                                 R   N=           2
  0.00000000E+00  0.00000000E+00
Integer atomic weights                     I   N=           2
          16          16
Real atomic weights                        R   N=           2
  1.59949146E+01  1.59949146E+01
Atom fragment info                         I   N=           2
           0           0
Atom residue num                           I   N=           2
           0           0
Nuclear spins                              I   N=           2
           0           0
Nuclear ZEff                               R   N=           2
 -5.60000000E+00 -5.60000000E+00
Nuclear ZNuc                               R   N=           2
  8.00000000E+00  8.00000000E+00
Nuclear QMom                               R   N=           2
  0.00000000E+00  0.00000000E+00
Nuclear GFac                               R   N=           2
  0.00000000E+00  0.00000000E+00
MicOpt                                     I   N=           2
          -1          -1
Number of residues                         I                0
Number of secondary structures             I                0
SymInf integers                            I   N=          26
           2           8           1           1           1          -1
           1          -1          -1          -1           1           1
          -1          -1          -1           1           1           1
          -1           1           1           1          -1          -1
          -1          -1
RotTr to input orientation                 R   N=          12
  0.00000000E+00  0.00000000E+00 -1.00000000E+00  0.00000000E+00  1.00000000E+00
  0.00000000E+00  1.00000000E+00  0.00000000E+00  0.00000000E+00 -4.43885517E+00
 -7.84051149E-01 -3.34802777E-02
Number of contracted shells                I                8
Number of primitive shells                 I               22
Pure/Cartesian d shells                    I                1
Pure/Cartesian f shells                    I                0
Highest angular momentum                   I                2
Largest degree of contraction              I                6
Shell types                                I   N=           8
           0          -1          -1           2           0          -1
          -1           2
Number of primitives per shell             I   N=           8
           6           3           1           1           6           3
           1           1
Shell to atom map                          I   N=           8
           1           1           1           1           2           2
           2           2
Primitive exponents                        R   N=          22
  5.48467166E+03  8.25234946E+02  1.88046958E+02  5.29645000E+01  1.68975704E+01
  5.79963534E+00  1.55396162E+01  3.59993359E+00  1.01376175E+00  2.70005823E-01
  8.00000000E-01  5.48467166E+03  8.25234946E+02  1.88046958E+02  5.29645000E+01
  1.68975704E+01  5.79963534E+00  1.55396162E+01  3.59993359E+00  1.01376175E+00
  2.70005823E-01  8.00000000E-01
Contraction coefficients                   R   N=          22
  1.83107443E-03  1.39501722E-02  6.84450781E-02  2.32714336E-01  4.70192898E-01
  3.58520853E-01 -1.10777550E-01 -1.48026263E-01  1.13076702E+00  1.00000000E+00
  1.00000000E+00  1.83107443E-03  1.39501722E-02  6.84450781E-02  2.32714336E-01
  4.70192898E-01  3.58520853E-01 -1.10777550E-01 -1.48026263E-01  1.13076702E+00
  1.00000000E+00  1.00000000E+00
P(S=P) Contraction coefficients            R   N=          22
  0.00000000E+00  0.00000000E+00  0.00000000E+00  0.00000000E+00  0.00000000E+00
  0.00000000E+00  7.08742682E-02  3.39752839E-01  7.27158577E-01  1.00000000E+00
  0.00000000E+00  0.00000000E+00  0.00000000E+00  0.00000000E+00  0.00000000E+00
  0.00000000E+00  0.00000000E+00  7.08742682E-02  3.39752839E-01  7.27158577E-01
  1.00000000E+00  0.00000000E+00
Coordinates of each shell                  R   N=          24
  0.00000000E+00  0.00000000E+00  1.09755293E+00  0.00000000E+00  0.00000000E+00
  1.09755293E+00  0.00000000E+00  0.00000000E+00  1.09755293E+00  0.00000000E+00
  0.00000000E+00  1.09755293E+00  1.34411469E-16  0.00000000E+00 -1.09755293E+00
  1.34411469E-16  0.00000000E+00 -1.09755293E+00  1.34411469E-16  0.00000000E+00
 -1.09755293E+00  1.34411469E-16  0.00000000E+00 -1.09755293E+00
Num ILSW                                   I              100
ILSW                                       I   N=         100
           0           1           0           0           2           0
           0           0           0           0       20419          -1
           5           0           0           0           0           0
           0           0           0           0           0           0
           1           0           0           0           0           0
           0           0      100000           0          -1           0
           0           0           0           0           0           0
           0           0           0           1           0           0
           0 -2000000000           1           0           0           0
           0           0           4          52           0           0
           0           0          40           0           0           0
           0           0           0           2           0           1
           0           0           0           0           0           0
           0           0           0           0           0           0
           0           0           0           0           0           0
           0           0           0           0           0           0
           0           0           0           0
Num RLSW                                   I               52
RLSW                                       R   N=          52
  1.00000000E+00  1.00000000E+00  1.00000000E+00  8.10000000E-01  1.00000000E+00
  0.00000000E+00  3.30000000E-01  1.90000000E-01  0.00000000E+00  4.60000000E-01
  0.00000000E+00  3.30000000E-01  1.90000000E-01  0.00000000E+00  4.60000000E-01
  0.00000000E+00  0.00000000E+00  1.00000000E+00  0.00000000E+00  0.00000000E+00
  0.00000000E+00  0.00000000E+00  1.00000000E+00  0.00000000E+00  0.00000000E+00
  0.00000000E+00  0.00000000E+00  1.00000000E+00  0.00000000E+00  0.00000000E+00
  0.00000000E+00  0.00000000E+00  1.00000000E+00  0.00000000E+00  0.00000000E+00
  0.00000000E+00  0.00000000E+00  0.00000000E+00  1.00000000E+00  1.00000000E+00
  0.00000000E+00  1.00000000E+00  0.00000000E+00  0.00000000E+00  0.00000000E+00
  0.00000000E+00  0.00000000E+00  0.00000000E+00  0.00000000E+00  0.00000000E+00
  0.00000000E+00  0.00000000E+00
MxBond                                     I                1
NBond                                      I   N=           2
           1           1
IBond                                      I   N=           2
           2           1
RBond                                      R   N=           2
  2.00000000E+00  2.00000000E+00
Virial Ratio                               R      2.006789885261760E+00
SCF Energy                                 R     -1.502072617469319E+02
Total Energy                               R     -1.502072617469319E+02
RMS Density                                R      9.890505414782046E-10
Job Status                                 I                1
Nuclear derivative order                   I                0
External E-field                           R   N=          35
  0.00000000E+00  0.00000000E+00  0.00000000E+00  0.00000000E+00  0.00000000E+00
  0.00000000E+00  0.00000000E+00  0.00000000E+00  0.00000000E+00  0.00000000E+00
  0.00000000E+00  0.00000000E+00  0.00000000E+00  0.00000000E+00  0.00000000E+00
  0.00000000E+00  0.00000000E+00  0.00000000E+00  0.00000000E+00  0.00000000E+00
  0.00000000E+00  0.00000000E+00  0.00000000E+00  0.00000000E+00  0.00000000E+00
  0.00000000E+00  0.00000000E+00  0.00000000E+00  0.00000000E+00  0.00000000E+00
  0.00000000E+00  0.00000000E+00  0.00000000E+00  0.00000000E+00  0.00000000E+00
IOpCl                                      I                0
IROHF                                      I                0
Alpha Orbital Energies                     R   N=          30
 -1.93760869E+01 -1.93757640E+01 -1.40398025E+00 -8.56422449E-01 -6.08392532E-01
 -6.03670278E-01 -6.00890491E-01 -3.01242544E-01 -9.60911747E-02  3.50420721E-01
  7.37472869E-01  7.87955273E-01  8.50796902E-01  8.70831246E-01  9.04808069E-01
  9.81327488E-01  9.94294992E-01  1.37506359E+00  1.58678383E+00  1.58682471E+00
  1.58827179E+00  1.61542524E+00  2.02423970E+00  2.02578952E+00  2.58874573E+00
  2.66717560E+00  2.69847954E+00  2.87398112E+00  3.25857678E+00  3.60067252E+00
Alpha MO coefficients                      R   N=         900
  7.02255130E-01  1.92208480E-02  0.00000000E+00  0.00000000E+00 -1.32210276E-03
  4.89490677E-03  0.00000000E+00  0.00000000E+00  4.60450087E-04 -4.87594427E-03
 -4.89387436E-03 -5.34857307E-03  0.00000000E+00  0.00000000E+00  0.00000000E+00
  7.02255130E-01  1.92208480E-02  0.00000000E+00  0.00000000E+00  1.32210276E-03
  4.89490677E-03  0.00000000E+00  0.00000000E+00 -4.60450087E-04 -4.87594427E-03
 -4.89387436E-03 -5.34857307E-03  0.00000000E+00  0.00000000E+00  0.00000000E+00
  7.02077595E-01  1.80534305E-02  0.00000000E+00  0.00000000E+00 -1.15541064E-03
  1.00547317E-02  0.00000000E+00  0.00000000E+00 -2.24441375E-03 -5.62980082E-03
 -5.69189651E-03 -4.21793086E-03  0.00000000E+00  0.00000000E+00  0.00000000E+00
 -7.02077595E-01 -1.80534305E-02  0.00000000E+00  0.00000000E+00 -1.15541064E-03
 -1.00547317E-02  0.00000000E+00  0.00000000E+00 -2.24441375E-03  5.62980082E-03
  5.69189651E-03  4.21793086E-03  0.00000000E+00  0.00000000E+00  0.00000000E+00
 -1.52017565E-01  3.50068641E-01  0.00000000E+00  0.00000000E+00 -1.97064259E-01
  2.12861377E-01  0.00000000E+00  0.00000000E+00 -4.60692247E-02 -1.24864072E-02
 -3.61384901E-03  3.29065864E-02  0.00000000E+00  0.00000000E+00  0.00000000E+00
 -1.52017565E-01  3.50068641E-01  0.00000000E+00  0.00000000E+00  1.97064259E-01
  2.12861377E-01  0.00000000E+00  0.00000000E+00  4.60692247E-02 -1.24864072E-02
 -3.61384901E-03  3.29065864E-02  0.00000000E+00  0.00000000E+00  0.00000000E+00
 -1.63605152E-01  3.81809186E-01  0.00000000E+00  0.00000000E+00  1.49217167E-01
  4.84340732E-01  0.00000000E+00  0.00000000E+00  4.28516766E-02 -3.38655778E-03
  4.37500223E-03 -2.16913946E-02  0.00000000E+00  0.00000000E+00  0.00000000E+00
  1.63605152E-01 -3.81809186E-01  0.00000000E+00  0.00000000E+00  1.49217167E-01
 -4.84340732E-01  0.00000000E+00  0.00000000E+00  4.28516766E-02  3.38655778E-03
 -4.37500223E-03  2.16913946E-02  0.00000000E+00  0.00000000E+00  0.00000000E+00
 -6.43194390E-02  1.16877115E-01  0.00000000E+00  0.00000000E+00  4.66843801E-01
  3.08411198E-01  0.00000000E+00  0.00000000E+00  2.13507811E-01 -1.27648043E-03
  2.63461615E-03 -3.70218062E-02  0.00000000E+00  0.00000000E+00  0.00000000E+00
 -6.43194390E-02  1.16877115E-01  0.00000000E+00  0.00000000E+00 -4.66843801E-01
  3.08411198E-01  0.00000000E+00  0.00000000E+00 -2.13507811E-01 -1.27648043E-03
  2.63461615E-03 -3.70218062E-02  0.00000000E+00  0.00000000E+00  0.00000000E+00
  0.00000000E+00  0.00000000E+00  0.00000000E+00  4.57641417E-01  0.00000000E+00
  0.00000000E+00  0.00000000E+00  2.60019535E-01  0.00000000E+00  0.00000000E+00
  0.00000000E+00  0.00000000E+00  0.00000000E+00  0.00000000E+00 -4.02640900E-02
  0.00000000E+00  0.00000000E+00  0.00000000E+00  4.57641417E-01  0.00000000E+00
  0.00000000E+00  0.00000000E+00  2.60019535E-01  0.00000000E+00  0.00000000E+00
  0.00000000E+00  0.00000000E+00  0.00000000E+00  0.00000000E+00  4.02640900E-02
  0.00000000E+00  0.00000000E+00  4.65765758E-01  0.00000000E+00  0.00000000E+00
  0.00000000E+00  2.54308268E-01  0.00000000E+00  0.00000000E+00  0.00000000E+00
  0.00000000E+00  0.00000000E+00  0.00000000E+00 -3.40092319E-02  0.00000000E+00
  0.00000000E+00  0.00000000E+00  4.65765758E-01  0.00000000E+00  0.00000000E+00
  0.00000000E+00  2.54308268E-01  0.00000000E+00  0.00000000E+00  0.00000000E+00
  0.00000000E+00  0.00000000E+00  0.00000000E+00  3.40092319E-02  0.00000000E+00
  0.00000000E+00  0.00000000E+00  5.37285120E-01  0.00000000E+00  0.00000000E+00
  0.00000000E+00  4.09990905E-01  0.00000000E+00  0.00000000E+00  0.00000000E+00
  0.00000000E+00  0.00000000E+00  0.00000000E+00  5.94164616E-03  0.00000000E+00
  0.00000000E+00  0.00000000E+00 -5.37285120E-01  0.00000000E+00  0.00000000E+00
  0.00000000E+00 -4.09990905E-01  0.00000000E+00  0.00000000E+00  0.00000000E+00
  0.00000000E+00  0.00000000E+00  0.00000000E+00  5.94164616E-03  0.00000000E+00
  0.00000000E+00  0.00000000E+00  0.00000000E+00  5.22320834E-01  0.00000000E+00
  0.00000000E+00  0.00000000E+00  4.35385294E-01  0.00000000E+00  0.00000000E+00
  0.00000000E+00  0.00000000E+00  0.00000000E+00  0.00000000E+00  6.07332318E-03
  0.00000000E+00  0.00000000E+00  0.00000000E+00 -5.22320834E-01  0.00000000E+00
  0.00000000E+00  0.00000000E+00 -4.35385294E-01  0.00000000E+00  0.00000000E+00
  0.00000000E+00  0.00000000E+00  0.00000000E+00  0.00000000E+00  6.07332318E-03
 -9.81853479E-02  2.60501801E-01  0.00000000E+00  0.00000000E+00 -4.82864815E-01
  1.44898159E+00  0.00000000E+00  0.00000000E+00 -1.27473915E+00  4.65853736E-03
  1.13942526E-02  1.72471537E-02  0.00000000E+00  0.00000000E+00  0.00000000E+00
  9.81853479E-02 -2.60501801E-01  0.00000000E+00  0.00000000E+00 -4.82864815E-01
 -1.44898159E+00  0.00000000E+00  0.00000000E+00 -1.27473915E+00 -4.65853736E-03
 -1.13942526E-02 -1.72471537E-02  0.00000000E+00  0.00000000E+00  0.00000000E+00
 -1.89425339E-02 -9.17084604E-01  0.00000000E+00  0.00000000E+00 -9.34420348E-02
  1.37716956E+00  0.00000000E+00  0.00000000E+00 -5.08680065E-02 -2.68342108E-01
 -2.58205967E-01 -3.61837073E-01  0.00000000E+00  0.00000000E+00  0.00000000E+00
 -1.89425339E-02 -9.17084604E-01  0.00000000E+00  0.00000000E+00  9.34420348E-02
  1.37716956E+00  0.00000000E+00  0.00000000E+00  5.08680065E-02 -2.68342108E-01
 -2.58205967E-01 -3.61837073E-01  0.00000000E+00  0.00000000E+00  0.00000000E+00
 -1.14548458E-02 -2.44148580E-01  0.00000000E+00  0.00000000E+00 -5.67647499E-01
 -7.46032022E-01  0.00000000E+00  0.00000000E+00  1.44737648E+00 -4.31411038E-02
 -4.23349899E-02 -3.92967401E-01  0.00000000E+00  0.00000000E+00  0.00000000E+00
  1.14548458E-02  2.44148580E-01  0.00000000E+00  0.00000000E+00 -5.67647499E-01
  7.46032022E-01  0.00000000E+00  0.00000000E+00  1.44737648E+00  4.31411038E-02
  4.23349899E-02  3.92967401E-01  0.00000000E+00  0.00000000E+00  0.00000000E+00
  0.00000000E+00  0.00000000E+00  0.00000000E+00  6.49784630E-01  0.00000000E+00
  0.00000000E+00  0.00000000E+00 -6.30805510E-01  0.00000000E+00  0.00000000E+00
  0.00000000E+00  0.00000000E+00  0.00000000E+00  0.00000000E+00 -8.54511662E-02
  0.00000000E+00  0.00000000E+00  0.00000000E+00  6.49784630E-01  0.00000000E+00
  0.00000000E+00  0.00000000E+00 -6.30805510E-01  0.00000000E+00  0.00000000E+00
  0.00000000E+00  0.00000000E+00  0.00000000E+00  0.00000000E+00  8.54511662E-02
  0.00000000E+00  0.00000000E+00  6.46254990E-01  0.00000000E+00  0.00000000E+00
  0.00000000E+00 -6.33130614E-01  0.00000000E+00  0.00000000E+00  0.00000000E+00
  0.00000000E+00  0.00000000E+00  0.00000000E+00 -8.30980740E-02  0.00000000E+00
  0.00000000E+00  0.00000000E+00  6.46254990E-01  0.00000000E+00  0.00000000E+00
  0.00000000E+00 -6.33130614E-01  0.00000000E+00  0.00000000E+00  0.00000000E+00
  0.00000000E+00  0.00000000E+00  0.00000000E+00  8.30980740E-02  0.00000000E+00
  2.14353228E-02 -9.44546422E-03  0.00000000E+00  0.00000000E+00 -5.29637855E-01
  2.34336991E-01  0.00000000E+00  0.00000000E+00  8.20476337E-01 -6.21044437E-02
 -7.92836865E-02  1.28208601E-01  0.00000000E+00  0.00000000E+00  0.00000000E+00
  2.14353228E-02 -9.44546422E-03  0.00000000E+00  0.00000000E+00  5.29637855E-01
  2.34336991E-01  0.00000000E+00  0.00000000E+00 -8.20476337E-01 -6.21044437E-02
 -7.92836865E-02  1.28208601E-01  0.00000000E+00  0.00000000E+00  0.00000000E+00
  0.00000000E+00  0.00000000E+00  0.00000000E+00 -6.44648398E-01  0.00000000E+00
  0.00000000E+00  0.00000000E+00  1.09357660E+00  0.00000000E+00  0.00000000E+00
  0.00000000E+00  0.00000000E+00  0.00000000E+00  0.00000000E+00 -1.97071578E-02
  0.00000000E+00  0.00000000E+00  0.00000000E+00  6.44648398E-01  0.00000000E+00
  0.00000000E+00  0.00000000E+00 -1.09357660E+00  0.00000000E+00  0.00000000E+00
  0.00000000E+00  0.00000000E+00  0.00000000E+00  0.00000000E+00 -1.97071578E-02
  0.00000000E+00  0.00000000E+00 -6.32303695E-01  0.00000000E+00  0.00000000E+00
  0.00000000E+00  1.10298981E+00  0.00000000E+00  0.00000000E+00  0.00000000E+00
  0.00000000E+00  0.00000000E+00  0.00000000E+00 -1.86360046E-02  0.00000000E+00
  0.00000000E+00  0.00000000E+00  6.32303695E-01  0.00000000E+00  0.00000000E+00
  0.00000000E+00 -1.10298981E+00  0.00000000E+00  0.00000000E+00  0.00000000E+00
  0.00000000E+00  0.00000000E+00  0.00000000E+00 -1.86360046E-02  0.00000000E+00
 -6.96687567E-02 -1.30634705E+00  0.00000000E+00  0.00000000E+00  1.91723932E-01
  5.42199358E+00  0.00000000E+00  0.00000000E+00 -2.55813706E+00 -3.54264645E-01
 -3.43191469E-01 -2.52043480E-01  0.00000000E+00  0.00000000E+00  0.00000000E+00
  6.96687567E-02  1.30634705E+00  0.00000000E+00  0.00000000E+00  1.91723932E-01
 -5.42199358E+00  0.00000000E+00  0.00000000E+00 -2.55813706E+00  3.54264645E-01
  3.43191469E-01  2.52043480E-01  0.00000000E+00  0.00000000E+00  0.00000000E+00
  0.00000000E+00  0.00000000E+00  0.00000000E+00  0.00000000E+00  0.00000000E+00
  0.00000000E+00  0.00000000E+00  0.00000000E+00  0.00000000E+00  0.00000000E+00
  0.00000000E+00  0.00000000E+00  6.60666673E-01  0.00000000E+00  0.00000000E+00
  0.00000000E+00  0.00000000E+00  0.00000000E+00  0.00000000E+00  0.00000000E+00
  0.00000000E+00  0.00000000E+00  0.00000000E+00  0.00000000E+00  0.00000000E+00
  0.00000000E+00  0.00000000E+00  6.60666673E-01  0.00000000E+00  0.00000000E+00
  0.00000000E+00  0.00000000E+00  0.00000000E+00  1.96777208E-01  0.00000000E+00
  0.00000000E+00  0.00000000E+00  1.18827330E-03  0.00000000E+00  0.00000000E+00
  0.00000000E+00  0.00000000E+00  0.00000000E+00  0.00000000E+00  5.99138731E-01
  0.00000000E+00  0.00000000E+00  0.00000000E+00  1.96777208E-01  0.00000000E+00
  0.00000000E+00  0.00000000E+00  1.18827330E-03  0.00000000E+00  0.00000000E+00
  0.00000000E+00  0.00000000E+00  0.00000000E+00  0.00000000E+00 -5.99138731E-01
  4.85330598E-03  6.47634444E-03  0.00000000E+00  0.00000000E+00 -1.15400336E-02
 -2.90479206E-02  0.00000000E+00  0.00000000E+00  1.83828521E-02 -5.56657587E-01
  5.87329612E-01  5.75953855E-03  0.00000000E+00  0.00000000E+00  0.00000000E+00
  4.85330598E-03  6.47634444E-03  0.00000000E+00  0.00000000E+00  1.15400336E-02
 -2.90479206E-02  0.00000000E+00  0.00000000E+00 -1.83828521E-02 -5.56657587E-01
  5.87329612E-01  5.75953855E-03  0.00000000E+00  0.00000000E+00  0.00000000E+00
  0.00000000E+00  0.00000000E+00  1.89192359E-01  0.00000000E+00  0.00000000E+00
  0.00000000E+00  3.04157931E-04  0.00000000E+00  0.00000000E+00  0.00000000E+00
  0.00000000E+00  0.00000000E+00  0.00000000E+00  5.99856983E-01  0.00000000E+00
  0.00000000E+00  0.00000000E+00  1.89192359E-01  0.00000000E+00  0.00000000E+00
  0.00000000E+00  3.04157931E-04  0.00000000E+00  0.00000000E+00  0.00000000E+00
  0.00000000E+00  0.00000000E+00  0.00000000E+00 -5.99856983E-01  0.00000000E+00
  0.00000000E+00  0.00000000E+00  0.00000000E+00  0.00000000E+00  0.00000000E+00
  0.00000000E+00  0.00000000E+00  0.00000000E+00  0.00000000E+00  0.00000000E+00
  0.00000000E+00  0.00000000E+00  7.64954751E-01  0.00000000E+00  0.00000000E+00
  0.00000000E+00  0.00000000E+00  0.00000000E+00  0.00000000E+00  0.00000000E+00
  0.00000000E+00  0.00000000E+00  0.00000000E+00  0.00000000E+00  0.00000000E+00
  0.00000000E+00  0.00000000E+00 -7.64954751E-01  0.00000000E+00  0.00000000E+00
  5.57931619E-03  1.05798508E-02  0.00000000E+00  0.00000000E+00  4.79542236E-03
 -1.30761311E-01  0.00000000E+00  0.00000000E+00  6.08800677E-02 -6.42924120E-01
  6.81810197E-01 -2.19800841E-03  0.00000000E+00  0.00000000E+00  0.00000000E+00
 -5.57931619E-03 -1.05798508E-02  0.00000000E+00  0.00000000E+00  4.79542236E-03
  1.30761311E-01  0.00000000E+00  0.00000000E+00  6.08800677E-02  6.42924120E-01
 -6.81810197E-01  2.19800841E-03  0.00000000E+00  0.00000000E+00  0.00000000E+00
 -8.25953998E-02 -5.00891497E-01  0.00000000E+00  0.00000000E+00  4.46855152E-01
  6.80065879E-01  0.00000000E+00  0.00000000E+00 -5.10184784E-01 -6.74129432E-01
 -6.60889725E-01  5.12048855E-01  0.00000000E+00  0.00000000E+00  0.00000000E+00
 -8.25953998E-02 -5.00891497E-01  0.00000000E+00  0.00000000E+00 -4.46855152E-01
  6.80065879E-01  0.00000000E+00  0.00000000E+00  5.10184784E-01 -6.74129432E-01
 -6.60889725E-01  5.12048855E-01  0.00000000E+00  0.00000000E+00  0.00000000E+00
  0.00000000E+00  0.00000000E+00  0.00000000E+00 -5.52939165E-02  0.00000000E+00
  0.00000000E+00  0.00000000E+00 -5.43299915E-01  0.00000000E+00  0.00000000E+00
  0.00000000E+00  0.00000000E+00  0.00000000E+00  0.00000000E+00  1.06782198E+00
  0.00000000E+00  0.00000000E+00  0.00000000E+00  5.52939165E-02  0.00000000E+00
  0.00000000E+00  0.00000000E+00  5.43299915E-01  0.00000000E+00  0.00000000E+00
  0.00000000E+00  0.00000000E+00  0.00000000E+00  0.00000000E+00  1.06782198E+00
  0.00000000E+00  0.00000000E+00 -5.44496505E-02  0.00000000E+00  0.00000000E+00
  0.00000000E+00 -5.44027455E-01  0.00000000E+00  0.00000000E+00  0.00000000E+00
  0.00000000E+00  0.00000000E+00  0.00000000E+00  1.06784195E+00  0.00000000E+00
  0.00000000E+00  0.00000000E+00  5.44496505E-02  0.00000000E+00  0.00000000E+00
  0.00000000E+00  5.44027455E-01  0.00000000E+00  0.00000000E+00  0.00000000E+00
  0.00000000E+00  0.00000000E+00  0.00000000E+00  1.06784195E+00  0.00000000E+00
 -1.76517640E-02 -2.58410179E-01  0.00000000E+00  0.00000000E+00 -6.65126570E-01
  3.46714303E+00  0.00000000E+00  0.00000000E+00 -2.23381928E+00 -4.92531710E-01
 -4.79826906E-01  1.47123422E+00  0.00000000E+00  0.00000000E+00  0.00000000E+00
  1.76517640E-02  2.58410179E-01  0.00000000E+00  0.00000000E+00 -6.65126570E-01
 -3.46714303E+00  0.00000000E+00  0.00000000E+00 -2.23381928E+00  4.92531710E-01
  4.79826906E-01 -1.47123422E+00  0.00000000E+00  0.00000000E+00  0.00000000E+00
 -2.78234819E-01  5.83577222E-01  0.00000000E+00  0.00000000E+00 -1.14883833E-01
  1.36333943E+00  0.00000000E+00  0.00000000E+00 -1.10267593E-02 -8.78692692E-01
 -8.70478772E-01 -9.30776312E-01  0.00000000E+00  0.00000000E+00  0.00000000E+00
 -2.78234819E-01  5.83577222E-01  0.00000000E+00  0.00000000E+00  1.14883833E-01
  1.36333943E+00  0.00000000E+00  0.00000000E+00  1.10267593E-02 -8.78692692E-01
 -8.70478772E-01 -9.30776312E-01  0.00000000E+00  0.00000000E+00  0.00000000E+00
 -3.53180718E-01 -6.30240710E-02  0.00000000E+00  0.00000000E+00  2.02270412E-01
  4.50094197E+00  0.00000000E+00  0.00000000E+00 -1.34952598E+00 -1.26659391E+00
 -1.25410347E+00 -1.01039944E+00  0.00000000E+00  0.00000000E+00  0.00000000E+00
  3.53180718E-01  6.30240710E-02  0.00000000E+00  0.00000000E+00  2.02270412E-01
 -4.50094197E+00  0.00000000E+00  0.00000000E+00 -1.34952598E+00  1.26659391E+00
  1.25410347E+00  1.01039944E+00  0.00000000E+00  0.00000000E+00  0.00000000E+00
Orthonormal basis                          R   N=         900
  2.53551045E-02  1.29512331E-01  0.00000000E+00  0.00000000E+00 -5.20569149E-02
  1.66958743E-01  0.00000000E+00  0.00000000E+00 -9.48301880E-02  1.07224488E-01
  1.07224488E-01  1.43220212E-01  0.00000000E+00  0.00000000E+00  0.00000000E+00
  2.53551045E-02  1.29512331E-01  0.00000000E+00  0.00000000E+00  5.20569149E-02
  1.66958743E-01  0.00000000E+00  0.00000000E+00  9.48301880E-02  1.07224488E-01
  1.07224488E-01  1.43220212E-01  0.00000000E+00  0.00000000E+00  0.00000000E+00
  2.60596389E-02  7.56889356E-02  0.00000000E+00  0.00000000E+00  4.48233169E-01
  1.19742598E-01  0.00000000E+00  0.00000000E+00  2.93698831E-01  8.46129785E-02
  8.46129785E-02  1.80457472E-02  0.00000000E+00  0.00000000E+00  0.00000000E+00
  2.60596389E-02  7.56889356E-02  0.00000000E+00  0.00000000E+00 -4.48233169E-01
  1.19742598E-01  0.00000000E+00  0.00000000E+00 -2.93698831E-01  8.46129785E-02
  8.46129785E-02  1.80457472E-02  0.00000000E+00  0.00000000E+00  0.00000000E+00
  6.70710658E-01  9.65214864E-02  0.00000000E+00  0.00000000E+00 -7.70593119E-03
 -2.25774416E-02  0.00000000E+00  0.00000000E+00  9.13182847E-03 -1.27451178E-01
 -1.27451178E-01  1.43795371E-02  0.00000000E+00  0.00000000E+00  0.00000000E+00
  6.70710658E-01  9.65214864E-02  0.00000000E+00  0.00000000E+00  7.70593119E-03
 -2.25774416E-02  0.00000000E+00  0.00000000E+00 -9.13182847E-03 -1.27451178E-01
 -1.27451178E-01  1.43795371E-02  0.00000000E+00  0.00000000E+00  0.00000000E+00
 -1.33915067E-01  1.04961347E-01  0.00000000E+00  0.00000000E+00 -1.37277534E-01
 -5.64588333E-02  0.00000000E+00  0.00000000E+00  3.33198240E-01 -2.60223924E-01
 -2.60223924E-01  5.54975430E-01  0.00000000E+00  0.00000000E+00  0.00000000E+00
 -1.33915067E-01  1.04961347E-01  0.00000000E+00  0.00000000E+00  1.37277534E-01
 -5.64588333E-02  0.00000000E+00  0.00000000E+00 -3.33198240E-01 -2.60223924E-01
 -2.60223924E-01  5.54975430E-01  0.00000000E+00  0.00000000E+00  0.00000000E+00
 -1.20994200E-16 -6.97955047E-16  0.00000000E+00  0.00000000E+00  4.12524920E-16
  1.26049889E-15  0.00000000E+00  0.00000000E+00 -5.68799428E-16  5.72154122E-01
 -5.72154122E-01  1.61731103E-16  0.00000000E+00  0.00000000E+00  0.00000000E+00
 -1.20994200E-16 -6.97955047E-16  0.00000000E+00  0.00000000E+00 -4.12524920E-16
  1.26049889E-15  0.00000000E+00  0.00000000E+00  5.68799428E-16  5.72154122E-01
 -5.72154122E-01  1.61731103E-16  0.00000000E+00  0.00000000E+00  0.00000000E+00
  1.96404203E-01 -6.07275745E-01  0.00000000E+00  0.00000000E+00 -5.23918438E-01
  3.04811470E-01  0.00000000E+00  0.00000000E+00  6.46592349E-01  2.96202371E-01
  2.96202371E-01 -4.67705667E-02  0.00000000E+00  0.00000000E+00  0.00000000E+00
  1.96404203E-01 -6.07275745E-01  0.00000000E+00  0.00000000E+00  5.23918438E-01
  3.04811470E-01  0.00000000E+00  0.00000000E+00 -6.46592349E-01  2.96202371E-01
  2.96202371E-01 -4.67705667E-02  0.00000000E+00  0.00000000E+00  0.00000000E+00
 -1.44658025E-01  1.05063817E+00  0.00000000E+00  0.00000000E+00 -5.10576955E-01
 -5.52469355E-02  0.00000000E+00  0.00000000E+00  5.75440809E-01  1.90462229E-02
  1.90462229E-02 -6.93150522E-01  0.00000000E+00  0.00000000E+00  0.00000000E+00
 -1.44658025E-01  1.05063817E+00  0.00000000E+00  0.00000000E+00  5.10576955E-01
 -5.52469355E-02  0.00000000E+00  0.00000000E+00 -5.75440809E-01  1.90462229E-02
  1.90462229E-02 -6.93150522E-01  0.00000000E+00  0.00000000E+00  0.00000000E+00
 -2.77269700E-01 -2.31835756E-01  0.00000000E+00  0.00000000E+00  3.64844304E-02
  2.06690974E+00  0.00000000E+00  0.00000000E+00 -1.69278354E-01 -1.04613053E+00
 -1.04613053E+00 -6.83176416E-01  0.00000000E+00  0.00000000E+00  0.00000000E+00
 -2.77269700E-01 -2.31835756E-01  0.00000000E+00  0.00000000E+00 -3.64844304E-02
  2.06690974E+00  0.00000000E+00  0.00000000E+00  1.69278354E-01 -1.04613053E+00
 -1.04613053E+00 -6.83176416E-01  0.00000000E+00  0.00000000E+00  0.00000000E+00
  0.00000000E+00  0.00000000E+00  0.00000000E+00  0.00000000E+00  0.00000000E+00
  0.00000000E+00  0.00000000E+00  0.00000000E+00  0.00000000E+00  0.00000000E+00
  0.00000000E+00  0.00000000E+00  6.60666673E-01  0.00000000E+00  0.00000000E+00
  0.00000000E+00  0.00000000E+00  0.00000000E+00  0.00000000E+00  0.00000000E+00
  0.00000000E+00  0.00000000E+00  0.00000000E+00  0.00000000E+00  0.00000000E+00
  0.00000000E+00  0.00000000E+00  6.60666673E-01  0.00000000E+00  0.00000000E+00
  0.00000000E+00  0.00000000E+00  4.89522349E-01  0.00000000E+00  0.00000000E+00
  0.00000000E+00  2.95323041E-01  0.00000000E+00  0.00000000E+00  0.00000000E+00
  0.00000000E+00  0.00000000E+00  0.00000000E+00  2.66650250E-01  0.00000000E+00
  0.00000000E+00  0.00000000E+00 -4.89522349E-01  0.00000000E+00  0.00000000E+00
  0.00000000E+00 -2.95323041E-01  0.00000000E+00  0.00000000E+00  0.00000000E+00
  0.00000000E+00  0.00000000E+00  0.00000000E+00  2.66650250E-01  0.00000000E+00
  0.00000000E+00  0.00000000E+00 -5.70212454E-01  0.00000000E+00  0.00000000E+00
  0.00000000E+00  2.68488534E-01  0.00000000E+00  0.00000000E+00  0.00000000E+00
  0.00000000E+00  0.00000000E+00  0.00000000E+00  7.49449474E-01  0.00000000E+00
  0.00000000E+00  0.00000000E+00  5.70212454E-01  0.00000000E+00  0.00000000E+00
  0.00000000E+00 -2.68488534E-01  0.00000000E+00  0.00000000E+00  0.00000000E+00
  0.00000000E+00  0.00000000E+00  0.00000000E+00  7.49449474E-01  0.00000000E+00
  0.00000000E+00  0.00000000E+00 -3.55912426E-01  0.00000000E+00  0.00000000E+00
  0.00000000E+00  1.23342739E+00  0.00000000E+00  0.00000000E+00  0.00000000E+00
  0.00000000E+00  0.00000000E+00  0.00000000E+00 -7.12665535E-01  0.00000000E+00
  0.00000000E+00  0.00000000E+00  3.55912426E-01  0.00000000E+00  0.00000000E+00
  0.00000000E+00 -1.23342739E+00  0.00000000E+00  0.00000000E+00  0.00000000E+00
  0.00000000E+00  0.00000000E+00  0.00000000E+00 -7.12665535E-01  0.00000000E+00
  0.00000000E+00  0.00000000E+00  0.00000000E+00  4.89522349E-01  0.00000000E+00
  0.00000000E+00  0.00000000E+00  2.95323041E-01  0.00000000E+00  0.00000000E+00
  0.00000000E+00  0.00000000E+00  0.00000000E+00  0.00000000E+00  2.66650250E-01
  0.00000000E+00  0.00000000E+00  0.00000000E+00 -4.89522349E-01  0.00000000E+00
  0.00000000E+00  0.00000000E+00 -2.95323041E-01  0.00000000E+00  0.00000000E+00
  0.00000000E+00  0.00000000E+00  0.00000000E+00  0.00000000E+00  2.66650250E-01
  0.00000000E+00  0.00000000E+00  0.00000000E+00 -5.70212454E-01  0.00000000E+00
  0.00000000E+00  0.00000000E+00  2.68488534E-01  0.00000000E+00  0.00000000E+00
  0.00000000E+00  0.00000000E+00  0.00000000E+00  0.00000000E+00  7.49449474E-01
  0.00000000E+00  0.00000000E+00  0.00000000E+00  5.70212454E-01  0.00000000E+00
  0.00000000E+00  0.00000000E+00 -2.68488534E-01  0.00000000E+00  0.00000000E+00
  0.00000000E+00  0.00000000E+00  0.00000000E+00  0.00000000E+00  7.49449474E-01
  0.00000000E+00  0.00000000E+00  0.00000000E+00 -3.55912426E-01  0.00000000E+00
  0.00000000E+00  0.00000000E+00  1.23342739E+00  0.00000000E+00  0.00000000E+00
  0.00000000E+00  0.00000000E+00  0.00000000E+00  0.00000000E+00 -7.12665535E-01
  0.00000000E+00  0.00000000E+00  0.00000000E+00  3.55912426E-01  0.00000000E+00
  0.00000000E+00  0.00000000E+00 -1.23342739E+00  0.00000000E+00  0.00000000E+00
  0.00000000E+00  0.00000000E+00  0.00000000E+00  0.00000000E+00 -7.12665535E-01
  0.00000000E+00  0.00000000E+00  0.00000000E+00  0.00000000E+00  0.00000000E+00
  0.00000000E+00  0.00000000E+00  0.00000000E+00  0.00000000E+00  0.00000000E+00
  0.00000000E+00  0.00000000E+00  7.64954751E-01  0.00000000E+00  0.00000000E+00
  0.00000000E+00  0.00000000E+00  0.00000000E+00  0.00000000E+00  0.00000000E+00
  0.00000000E+00  0.00000000E+00  0.00000000E+00  0.00000000E+00  0.00000000E+00
  0.00000000E+00  0.00000000E+00 -7.64954751E-01  0.00000000E+00  0.00000000E+00
  4.89582558E-02  1.88945749E-01  0.00000000E+00  0.00000000E+00  9.15243098E-02
  1.66518373E-01  0.00000000E+00  0.00000000E+00  2.02250017E-01  1.57809154E-01
  1.57809154E-01  9.57949383E-02  0.00000000E+00  0.00000000E+00  0.00000000E+00
 -4.89582558E-02 -1.88945749E-01  0.00000000E+00  0.00000000E+00  9.15243098E-02
 -1.66518373E-01  0.00000000E+00  0.00000000E+00  2.02250017E-01 -1.57809154E-01
 -1.57809154E-01 -9.57949383E-02  0.00000000E+00  0.00000000E+00  0.00000000E+00
  5.02961840E-01  1.66130220E-01  0.00000000E+00  0.00000000E+00 -3.07705144E-01
 -5.87687291E-04  0.00000000E+00  0.00000000E+00 -1.05199599E-01  6.05985655E-02
  6.05985655E-02 -2.67266395E-01  0.00000000E+00  0.00000000E+00  0.00000000E+00
 -5.02961840E-01 -1.66130220E-01  0.00000000E+00  0.00000000E+00 -3.07705144E-01
  5.87687291E-04  0.00000000E+00  0.00000000E+00 -1.05199599E-01 -6.05985655E-02
 -6.05985655E-02  2.67266395E-01  0.00000000E+00  0.00000000E+00  0.00000000E+00
  4.59934296E-01 -8.16362128E-02  0.00000000E+00  0.00000000E+00  3.91478685E-01
 -2.49224611E-02  0.00000000E+00  0.00000000E+00  6.45409236E-02 -2.34710872E-01
 -2.34710872E-01  2.32299447E-01  0.00000000E+00  0.00000000E+00  0.00000000E+00
 -4.59934296E-01  8.16362128E-02  0.00000000E+00  0.00000000E+00  3.91478685E-01
  2.49224611E-02  0.00000000E+00  0.00000000E+00  6.45409236E-02  2.34710872E-01
  2.34710872E-01 -2.32299447E-01  0.00000000E+00  0.00000000E+00  0.00000000E+00
 -1.87142147E-17  2.95108337E-17  0.00000000E+00  0.00000000E+00  1.57195563E-16
  1.22938785E-16  0.00000000E+00  0.00000000E+00 -6.52676697E-17  6.62470247E-01
 -6.62470247E-01 -1.38065984E-16  0.00000000E+00  0.00000000E+00  0.00000000E+00
  1.87142147E-17 -2.95108337E-17  0.00000000E+00  0.00000000E+00  1.57195563E-16
 -1.22938785E-16  0.00000000E+00  0.00000000E+00 -6.52676697E-17 -6.62470247E-01
  6.62470247E-01  1.38065984E-16  0.00000000E+00  0.00000000E+00  0.00000000E+00
 -1.27227461E-01  6.04593323E-01  0.00000000E+00  0.00000000E+00  6.31933822E-01
 -2.01426937E-01  0.00000000E+00  0.00000000E+00 -6.00817645E-01  6.44645720E-02
  6.44645720E-02 -3.24999900E-01  0.00000000E+00  0.00000000E+00  0.00000000E+00
  1.27227461E-01 -6.04593323E-01  0.00000000E+00  0.00000000E+00  6.31933822E-01
  2.01426937E-01  0.00000000E+00  0.00000000E+00 -6.00817645E-01 -6.44645720E-02
 -6.44645720E-02  3.24999900E-01  0.00000000E+00  0.00000000E+00  0.00000000E+00
 -2.20037471E-01  8.70981490E-01  0.00000000E+00  0.00000000E+00 -4.49149147E-01
  4.74090608E-03  0.00000000E+00  0.00000000E+00  1.49355487E-01 -5.56409619E-01
 -5.56409619E-01  3.33304998E-01  0.00000000E+00  0.00000000E+00  0.00000000E+00
  2.20037471E-01 -8.70981490E-01  0.00000000E+00  0.00000000E+00 -4.49149147E-01
 -4.74090608E-03  0.00000000E+00  0.00000000E+00  1.49355487E-01  5.56409619E-01
  5.56409619E-01 -3.33304998E-01  0.00000000E+00  0.00000000E+00  0.00000000E+00
  2.35957362E-01  4.31127217E-02  0.00000000E+00  0.00000000E+00 -4.83631353E-01
 -4.28216246E-01  0.00000000E+00  0.00000000E+00 -1.20032524E+00  5.42653692E-01
  5.42653692E-01  1.74713021E+00  0.00000000E+00  0.00000000E+00  0.00000000E+00
 -2.35957362E-01 -4.31127217E-02  0.00000000E+00  0.00000000E+00 -4.83631353E-01
  4.28216246E-01  0.00000000E+00  0.00000000E+00 -1.20032524E+00 -5.42653692E-01
 -5.42653692E-01 -1.74713021E+00  0.00000000E+00  0.00000000E+00  0.00000000E+00
 -2.68696796E-01 -9.24668342E-01  0.00000000E+00  0.00000000E+00 -8.02971513E-02
  8.02079525E+00  0.00000000E+00  0.00000000E+00 -3.89877330E+00 -1.12110490E+00
 -1.12110490E+00  2.06132394E-02  0.00000000E+00  0.00000000E+00  0.00000000E+00
  2.68696796E-01  9.24668342E-01  0.00000000E+00  0.00000000E+00 -8.02971513E-02
 -8.02079525E+00  0.00000000E+00  0.00000000E+00 -3.89877330E+00  1.12110490E+00
  1.12110490E+00 -2.06132394E-02  0.00000000E+00  0.00000000E+00  0.00000000E+00
  0.00000000E+00  0.00000000E+00  0.00000000E+00  2.56135234E-01  0.00000000E+00
  0.00000000E+00  0.00000000E+00  3.56304377E-01  0.00000000E+00  0.00000000E+00
  0.00000000E+00  0.00000000E+00  0.00000000E+00  0.00000000E+00 -1.98554910E-01
  0.00000000E+00  0.00000000E+00  0.00000000E+00  2.56135234E-01  0.00000000E+00
  0.00000000E+00  0.00000000E+00  3.56304377E-01  0.00000000E+00  0.00000000E+00
  0.00000000E+00  0.00000000E+00  0.00000000E+00  0.00000000E+00  1.98554910E-01
  0.00000000E+00  0.00000000E+00  0.00000000E+00  1.39723329E-01  0.00000000E+00
  0.00000000E+00  0.00000000E+00  2.18754236E-01  0.00000000E+00  0.00000000E+00
  0.00000000E+00  0.00000000E+00  0.00000000E+00  0.00000000E+00  5.72794494E-01
  0.00000000E+00  0.00000000E+00  0.00000000E+00  1.39723329E-01  0.00000000E+00
  0.00000000E+00  0.00000000E+00  2.18754236E-01  0.00000000E+00  0.00000000E+00
  0.00000000E+00  0.00000000E+00  0.00000000E+00  0.00000000E+00 -5.72794494E-01
  0.00000000E+00  0.00000000E+00  0.00000000E+00  7.65015775E-01  0.00000000E+00
  0.00000000E+00  0.00000000E+00 -5.39185439E-01  0.00000000E+00  0.00000000E+00
  0.00000000E+00  0.00000000E+00  0.00000000E+00  0.00000000E+00  1.93063104E-02
  0.00000000E+00  0.00000000E+00  0.00000000E+00  7.65015775E-01  0.00000000E+00
  0.00000000E+00  0.00000000E+00 -5.39185439E-01  0.00000000E+00  0.00000000E+00
  0.00000000E+00  0.00000000E+00  0.00000000E+00  0.00000000E+00 -1.93063104E-02
  0.00000000E+00  0.00000000E+00  2.56135234E-01  0.00000000E+00  0.00000000E+00
  0.00000000E+00  3.56304377E-01  0.00000000E+00  0.00000000E+00  0.00000000E+00
  0.00000000E+00  0.00000000E+00  0.00000000E+00 -1.98554910E-01  0.00000000E+00
  0.00000000E+00  0.00000000E+00  2.56135234E-01  0.00000000E+00  0.00000000E+00
  0.00000000E+00  3.56304377E-01  0.00000000E+00  0.00000000E+00  0.00000000E+00
  0.00000000E+00  0.00000000E+00  0.00000000E+00  1.98554910E-01  0.00000000E+00
  0.00000000E+00  0.00000000E+00  1.39723329E-01  0.00000000E+00  0.00000000E+00
  0.00000000E+00  2.18754236E-01  0.00000000E+00  0.00000000E+00  0.00000000E+00
  0.00000000E+00  0.00000000E+00  0.00000000E+00  5.72794494E-01  0.00000000E+00
  0.00000000E+00  0.00000000E+00  1.39723329E-01  0.00000000E+00  0.00000000E+00
  0.00000000E+00  2.18754236E-01  0.00000000E+00  0.00000000E+00  0.00000000E+00
  0.00000000E+00  0.00000000E+00  0.00000000E+00 -5.72794494E-01  0.00000000E+00
  0.00000000E+00  0.00000000E+00  7.65015775E-01  0.00000000E+00  0.00000000E+00
  0.00000000E+00 -5.39185439E-01  0.00000000E+00  0.00000000E+00  0.00000000E+00
  0.00000000E+00  0.00000000E+00  0.00000000E+00  1.93063104E-02  0.00000000E+00
  0.00000000E+00  0.00000000E+00  7.65015775E-01  0.00000000E+00  0.00000000E+00
  0.00000000E+00 -5.39185439E-01  0.00000000E+00  0.00000000E+00  0.00000000E+00
  0.00000000E+00  0.00000000E+00  0.00000000E+00 -1.93063104E-02  0.00000000E+00
Total SCF Density                          R   N=         465
  2.08017639E+00 -1.94054309E-01  5.65363871E-01 -8.02824595E-19  1.30129601E-18
  1.01122608E+00 -8.02824595E-19  1.30129601E-18  0.00000000E+00  4.18871334E-01
 -5.24444825E-02  8.50071068E-02 -6.93660582E-18  2.13121105E-18  5.58092605E-01
 -2.41878934E-01  5.91527303E-01  5.33598051E-18  5.33598051E-18  3.48572699E-01
  7.50276871E-01 -4.59013709E-19  7.70188967E-19  6.77460192E-01  0.00000000E+00
 -6.84517890E-18  2.35059749E-18  4.65530475E-01 -4.59013709E-19  7.70188967E-19
  0.00000000E+00  2.37991417E-01 -1.17753552E-19  2.35059749E-18  0.00000000E+00
  1.35220318E-01 -2.99850510E-02  5.03125615E-02 -6.84517890E-18 -1.17753552E-19
  2.30299172E-01  1.53552681E-01 -5.60936494E-18 -5.52948984E-19  9.90989488E-02
 -9.68479973E-03 -1.20173337E-02 -6.28691218E-19  4.20153747E-20  2.74465257E-03
 -9.54455199E-03 -3.24314875E-19  5.14263949E-21  3.35942706E-04  4.48956062E-04
 -1.55375256E-02  1.03284898E-03  7.98465676E-20 -8.97288720E-19  5.21597363E-03
  4.16220496E-03  2.83810706E-20 -5.26800899E-19  1.85399223E-03  1.65702518E-04
  1.90978887E-04 -1.15794221E-02 -2.53672772E-03 -1.55712512E-19  1.50716182E-19
 -5.39857929E-02 -2.99760304E-02  1.27964788E-20  2.38520935E-19 -2.06858686E-02
 -4.80685623E-04 -5.22348625E-04  5.94074468E-03  0.00000000E+00  0.00000000E+00
 -3.87232632E-19 -5.64149321E-19  0.00000000E+00  0.00000000E+00 -1.90212384E-19
 -3.20534460E-19  0.00000000E+00  0.00000000E+00  0.00000000E+00  0.00000000E+00
  1.36323455E-35 -3.34898263E-20  1.67581599E-19 -2.52959552E-02  0.00000000E+00
 -6.15549130E-19 -3.61152002E-19 -1.24256159E-02  0.00000000E+00 -1.81374492E-19
  4.67740433E-20 -1.21621668E-20  5.03002071E-20  3.64923625E-20  2.38386202E-03
  6.99644426E-20 -6.30967443E-20  0.00000000E+00 -3.68530304E-02 -4.82316139E-19
 -6.03436119E-19  0.00000000E+00 -2.09388999E-02 -7.78858457E-20 -1.14257209E-20
  7.33611083E-20  2.82732121E-20  4.96348411E-20  0.00000000E+00  3.24239388E-03
  1.45800370E-03  5.10985387E-03  7.41692920E-19  7.41692920E-19  4.84510584E-02
  4.68468143E-02  6.67582482E-20  6.67582482E-20  4.36097972E-03  3.90919514E-03
  3.31017808E-03 -1.39294587E-02  0.00000000E+00 -3.15320577E-19 -3.04732199E-19
  2.08017639E+00  5.10985387E-03 -1.90528521E-02 -2.18598531E-18 -2.18598531E-18
 -1.42799397E-01 -1.48901749E-01 -2.29162279E-19 -2.29162279E-19 -1.49700161E-02
 -6.43870932E-03 -5.23778215E-03  3.08957597E-02  0.00000000E+00  6.59933556E-19
  6.38705662E-19 -1.94054309E-01  5.65363871E-01 -7.41692920E-19  2.18598531E-18
 -1.43475118E-01  0.00000000E+00 -4.98353321E-18 -9.11311133E-19 -2.03667860E-01
  0.00000000E+00 -1.59834155E-20 -1.08183996E-18 -3.94698453E-20  1.63780525E-18
 -5.82708187E-19 -3.80653875E-02  0.00000000E+00  8.02824595E-19 -1.30129601E-18
  1.01122608E+00 -7.41692920E-19  2.18598531E-18  0.00000000E+00  4.18871334E-01
 -1.35919805E-17 -9.11311133E-19  0.00000000E+00  2.37991417E-01 -6.77694117E-18
 -7.25597698E-20 -1.01660513E-18  1.60566035E-18 -5.64149321E-19  0.00000000E+00
 -3.68530304E-02  8.02824595E-19 -1.30129601E-18  0.00000000E+00  4.18871334E-01
 -4.84510584E-02  1.42799397E-01 -4.98353321E-18 -1.35919805E-17 -4.69024213E-01
 -5.95313609E-02 -1.59834155E-20 -6.77694117E-18 -2.04711976E-01 -4.73996387E-03
 -2.57836596E-03  4.10583728E-02  0.00000000E+00  1.39225122E-18  1.33548340E-18
  5.24444825E-02 -8.50071068E-02 -6.93660582E-18  2.13121105E-18  5.58092605E-01
  4.68468143E-02 -1.48901749E-01  9.11311133E-19  9.11311133E-19  5.95313609E-02
 -1.88471298E-01  1.08111359E-18  1.08111359E-18  7.06236993E-02 -2.75713594E-03
 -4.08484020E-03  1.22177140E-02  0.00000000E+00  2.64699251E-19  2.88168089E-19
 -2.41878934E-01  5.91527303E-01 -5.33598051E-18 -5.33598051E-18 -3.48572699E-01
  7.50276871E-01 -6.67582482E-20  2.29162279E-19 -2.03667860E-01  0.00000000E+00
 -1.59834155E-20 -1.08111359E-18 -2.06839695E-01  0.00000000E+00  1.76205183E-18
 -6.01070807E-19 -1.61192240E-20  8.48140333E-19 -3.39375643E-19 -2.21696995E-02
  0.00000000E+00  4.59013709E-19 -7.70188967E-19  6.77460192E-01  0.00000000E+00
 -6.84517890E-18 -2.35059749E-18  4.65530475E-01 -6.67582482E-20  2.29162279E-19
  0.00000000E+00  2.37991417E-01 -6.77694117E-18 -1.08111359E-18  0.00000000E+00
  1.35220318E-01 -3.47423192E-18 -1.32549495E-20 -5.71301194E-19  8.15506445E-19
 -3.20534460E-19  0.00000000E+00 -2.09388999E-02  4.59013709E-19 -7.70188967E-19
  0.00000000E+00  2.37991417E-01 -1.17753552E-19 -2.35059749E-18  0.00000000E+00
  1.35220318E-01 -4.36097972E-03  1.49700161E-02 -1.59834155E-20 -6.77694117E-18
 -2.04711976E-01 -7.06236993E-02  1.76205183E-18 -3.47423192E-18 -9.17337345E-02
 -8.65879013E-04 -1.05298762E-03  1.70056853E-02  0.00000000E+00  6.55277952E-19
  6.39744148E-19  2.99850510E-02 -5.03125615E-02 -6.84517890E-18 -1.17753552E-19
  2.30299172E-01 -1.53552681E-01 -5.60936494E-18 -5.52948984E-19  9.90989488E-02
  3.90919514E-03 -6.43870932E-03  1.08183996E-18  7.25597698E-20  4.73996387E-03
 -2.75713594E-03  6.01070807E-19  1.32549495E-20  8.65879013E-04  2.76302339E-04
  9.67903347E-05 -8.69506711E-04  0.00000000E+00 -7.97160720E-20 -1.70805120E-20
 -9.68479973E-03 -1.20173337E-02  6.28691218E-19 -4.20153747E-20 -2.74465257E-03
 -9.54455199E-03  3.24314875E-19 -5.14263949E-21 -3.35942706E-04  4.48956062E-04
  3.31017808E-03 -5.23778215E-03  3.94698453E-20  1.01660513E-18  2.57836596E-03
 -4.08484020E-03  1.61192240E-20  5.71301194E-19  1.05298762E-03  9.67903347E-05
 -1.51744344E-05 -2.38781129E-04  0.00000000E+00 -5.93164643E-21 -8.99225953E-20
 -1.55375256E-02  1.03284898E-03 -7.98465676E-20  8.97288720E-19 -5.21597363E-03
  4.16220496E-03 -2.83810706E-20  5.26800899E-19 -1.85399223E-03  1.65702518E-04
  1.90978887E-04 -1.39294587E-02  3.08957597E-02 -1.63780525E-18 -1.60566035E-18
 -4.10583728E-02  1.22177140E-02 -8.48140333E-19 -8.15506445E-19 -1.70056853E-02
 -8.69506711E-04 -2.38781129E-04  3.98751451E-03  0.00000000E+00  1.45316401E-19
  1.60675142E-19 -1.15794221E-02 -2.53672772E-03  1.55712512E-19 -1.50716182E-19
  5.39857929E-02 -2.99760304E-02 -1.27964788E-20 -2.38520935E-19  2.06858686E-02
 -4.80685623E-04 -5.22348625E-04  5.94074468E-03  0.00000000E+00  0.00000000E+00
  5.82708187E-19  5.64149321E-19  0.00000000E+00  0.00000000E+00  3.39375643E-19
  3.20534460E-19  0.00000000E+00  0.00000000E+00  0.00000000E+00  0.00000000E+00
 -9.60744495E-36 -3.43306674E-20 -4.96348411E-20  0.00000000E+00  0.00000000E+00
  3.87232632E-19  5.64149321E-19  0.00000000E+00  0.00000000E+00  1.90212384E-19
  3.20534460E-19  0.00000000E+00  0.00000000E+00  0.00000000E+00  0.00000000E+00
  1.36323455E-35 -3.15320577E-19  6.59933556E-19  3.80653875E-02  0.00000000E+00
 -1.39225122E-18  2.64699251E-19  2.21696995E-02  0.00000000E+00 -6.55277952E-19
 -7.97160720E-20 -5.93164643E-21  1.45316401E-19 -3.43306674E-20 -2.24264939E-03
  0.00000000E+00 -3.34898263E-20  1.67581599E-19  2.52959552E-02  0.00000000E+00
  6.15549130E-19 -3.61152002E-19  1.24256159E-02  0.00000000E+00  1.81374492E-19
  4.67740433E-20 -1.21621668E-20  5.03002071E-20  3.64923625E-20  2.38386202E-03
 -3.04732199E-19  6.38705662E-19  0.00000000E+00  3.68530304E-02 -1.33548340E-18
  2.88168089E-19  0.00000000E+00  2.09388999E-02 -6.39744148E-19 -1.70805120E-20
 -8.99225953E-20  1.60675142E-19 -4.96348411E-20  0.00000000E+00 -3.24239388E-03
  6.99644426E-20 -6.30967443E-20  0.00000000E+00  3.68530304E-02  4.82316139E-19
 -6.03436119E-19  0.00000000E+00  2.09388999E-02  7.78858457E-20 -1.14257209E-20
  7.33611083E-20  2.82732121E-20  4.96348411E-20  0.00000000E+00  3.24239388E-03
Mulliken Charges                           R   N=           2
 -1.84574578E-15 -1.77635684E-15
ONIOM Charges                              I   N=          16
           0           0           0           0           0           0
           0           0           0           0           0           0
           0           0           0           0
ONIOM Multiplicities                       I   N=          16
           1           0           0           0           0           0
           0           0           0           0           0           0
           0           0           0           0
Atom Layers                                I   N=           2
           1           1
Atom Modifiers                             I   N=           2
           0           0
Force Field                                I                0
Atom Modified Types                        C   N=           2
                        
Int Atom Modified Types                    I   N=           2
           0           0
Link Atoms                                 I   N=           2
           0           0
Atom Modified MM Charges                   R   N=           2
  0.00000000E+00  0.00000000E+00
Link Distances                             R   N=           8
  0.00000000E+00  0.00000000E+00  0.00000000E+00  0.00000000E+00  0.00000000E+00
  0.00000000E+00  0.00000000E+00  0.00000000E+00
Cartesian Gradient                         R   N=           6
  0.00000000E+00  0.00000000E+00  0.00000000E+00  0.00000000E+00  0.00000000E+00
  0.00000000E+00
Nonadiabatic coupling                      R   N=           6
  0.00000000E+00  0.00000000E+00  0.00000000E+00  0.00000000E+00  0.00000000E+00
  0.00000000E+00
Dipole Moment                              R   N=           3
  0.00000000E+00  0.00000000E+00 -4.44089210E-16
Quadrupole Moment                          R   N=           6
 -4.91326050E-01  8.06268892E-01 -3.14942842E-01  8.08755590E-34  6.25850106E-17
 -7.22345800E-19
QEq coupling tensors                       R   N=          12
  3.88062912E+00  0.00000000E+00 -2.68718596E+00  1.75304449E-17  0.00000000E+00
 -1.19344316E+00  3.88062912E+00  0.00000000E+00 -2.68718596E+00 -7.71549113E-17
  0.00000000E+00 -1.19344316E+00
ClPar MaxAn                                I              200
ClPar NIntPar                              I                4
ClPar NRealPar                             I               16
ClPar NBits                                I               30
ClPar LenBitVec                            I                1
ClPar Read BitMap                          I   N=         200
           0           0           0           0           0           0
           0           0           0           0           0           0
           0           0           0           0           0           0
           0           0           0           0           0           0
           0           0           0           0           0           0
           0           0           0           0           0           0
           0           0           0           0           0           0
           0           0           0           0           0           0
           0           0           0           0           0           0
           0           0           0           0           0           0
           0           0           0           0           0           0
           0           0           0           0           0           0
           0           0           0           0           0           0
           0           0           0           0           0           0
           0           0           0           0           0           0
           0           0           0           0           0           0
           0           0           0           0           0           0
           0           0           0           0           0           0
           0           0           0           0           0           0
           0           0           0           0           0           0
           0           0           0           0           0           0
           0           0           0           0           0           0
           0           0           0           0           0           0
           0           0           0           0           0           0
           0           0           0           0           0           0
           0           0           0           0           0           0
           0           0           0           0           0           0
           0           0           0           0           0           0
           0           0           0           0           0           0
           0           0           0           0           0           0
           0           0           0           0           0           0
           0           0           0           0           0           0
           0           0           0           0           0           0
           0           0
ClPar Default BitMap                       I   N=         200
        2016        2016        2016        2016        2016        2016
        2016        2016        2016        2016        2016        2016
        2016        2016        2016        2016        2016        2016
        2016        2016        2016        2016        2016        2016
        2016        2016        2016        2016        2016        2016
        2016        2016        2016        2016        2016        2016
        2016        2016        2016        2016        2016        2016
        2016        2016        2016        2016        2016        2016
        2016        2016        2016        2016        2016        2016
        2016        2016        2016        2016        2016        2016
        2016        2016        2016        2016        2016        2016
        2016        2016        2016        2016        2016        2016
        2016        2016        2016        2016        2016        2016
        2016        2016        2016        2016        2016        2016
        2016        2016         480         480         480         480
         480         480         480         480         480         480
         480         480         480         480         480         480
         480         480         480         480         480         480
         480         480         480         480         480         480
         480         480         480         480         480         480
         480         480         480         480         480         480
         480         480         480         480         480         480
         480         480         480         480         480         480
         480         480         480         480         480         480
         480         480         480         480         480         480
         480         480         480         480         480         480
         480         480         480         480         480         480
         480         480         480         480         480         480
         480         480         480         480         480         480
         480         480         480         480         480         480
         480         480         480         480         480         480
         480         480         480         480         480         480
         480         480         480         480         480         480
         480         480
ClPar Int Params                           I   N=         800
           0           0           0           0           0           0
           0           0           0           0           0           0
           0           0           0           0           0           0
           0           0           0           0           0           0
           0           0           0           0           0           0
           0           0           0           0           0           0
           0           0           0           0           0           0
           0           0           0           0           0           0
           0           0           0           0           0           0
           0           0           0           0           0           0
           0           0           0           0           0           0
           0           0           0           0           0           0
           0           0           0           0           0           0
           0           0           0           0           0           0
           0           0           0           0           0           0
           0           0           0           0           0           0
           0           0           0           0           0           0
           0           0           0           0           0           0
           0           0           0           0           0           0
           0           0           0           0           0           0
           0           0           0           0           0           0
           0           0           0           0           0           0
           0           0           0           0           0           0
           0           0           0           0           0           0
           0           0           0           0           0           0
           0           0           0           0           0           0
           0           0           0           0           0           0
           0           0           0           0           0           0
           0           0           0           0           0           0
           0           0           0           0           0           0
           0           0           0           0           0           0
           0           0           0           0           0           0
           0           0           0           0           0           0
           0           0           0           0           0           0
           0           0           0           0           0           0
           0           0           0           0           0           0
           0           0           0           0           0           0
           0           0           0           0           0           0
           0           0           0           0           0           0
           0           0           0           0           0           0
           0           0           0           0           0           0
           0           0           0           0           0           0
           0           0           0           0           0           0
           0           0           0           0           0           0
           0           0           0           0           0           0
           0           0           0           0           0           0
           0           0           0           0           0           0
           0           0           0           0           0           0
           0           0           0           0           0           0
           0           0           0           0           0           0
           0           0           0           0           0           0
           0           0           0           0           0           0
           0           0           0           0           0           0
           0           0           0           0           0           0
           0           0           0           0           0           0
           0           0           0           0           0           0
           0           0           0           0           0           0
           0           0           0           0           0           0
           0           0           0           0           0           0
           0           0           0           0           0           0
           0           0           0           0           0           0
           0           0           0           0           0           0
           0           0           0           0           0           0
           0           0           0           0           0           0
           0           0           0           0           0           0
           0           0           0           0           0           0
           0           0           0           0           0           0
           0           0           0           0           0           0
           0           0           0           0           0           0
           0           0           0           0           0           0
           0           0           0           0           0           0
           0           0           0           0           0           0
           0           0           0           0           0           0
           0           0           0           0           0           0
           0           0           0           0           0           0
           0           0           0           0           0           0
           0           0           0           0           0           0
           0           0           0           0           0           0
           0           0           0           0           0           0
           0           0           0           0           0           0
           0           0           0           0           0           0
           0           0           0           0           0           0
           0           0           0           0           0           0
           0           0           0           0           0           0
           0           0           0           0           0           0
           0           0           0           0           0           0
           0           0           0           0           0           0
           0           0           0           0           0           0
           0           0           0           0           0           0
           0           0           0           0           0           0
           0           0           0           0           0           0
           0           0           0           0           0           0
           0           0           0           0           0           0
           0           0           0           0           0           0
           0           0           0           0           0           0
           0           0           0           0           0           0
           0           0           0           0           0           0
           0           0           0           0           0           0
           0           0           0           0           0           0
           0           0           0           0           0           0
           0           0           0           0           0           0
           0           0           0           0           0           0
           0           0           0           0           0           0
           0           0           0           0           0           0
           0           0           0           0           0           0
           0           0           0           0           0           0
           0           0           0           0           0           0
           0           0           0           0           0           0
           0           0           0           0           0           0
           0           0           0           0           0           0
           0           0           0           0           0           0
           0           0           0           0           0           0
           0           0           0           0           0           0
           0           0           0           0           0           0
           0           0           0           0           0           0
           0           0           0           0           0           0
           0           0           0           0           0           0
           0           0           0           0           0           0
           0           0           0           0           0           0
           0           0           0           0           0           0
           0           0           0           0           0           0
           0           0           0           0           0           0
           0           0           0           0           0           0
           0           0           0           0           0           0
           0           0           0           0           0           0
           0           0           0           0           0           0
           0           0           0           0           0           0
           0           0           0           0           0           0
           0           0           0           0           0           0
           0           0           0           0           0           0
           0           0           0           0           0           0
           0           0           0           0           0           0
           0           0           0           0           0           0
           0           0
ClPar Real Params                          R   N=        3200
  0.00000000E+00  0.00000000E+00  0.00000000E+00  0.00000000E+00  0.00000000E+00
  0.00000000E+00  0.00000000E+00  0.00000000E+00  0.00000000E+00  0.00000000E+00
  0.00000000E+00  0.00000000E+00  0.00000000E+00  0.00000000E+00  0.00000000E+00
  0.00000000E+00  0.00000000E+00  0.00000000E+00  0.00000000E+00  0.00000000E+00
  0.00000000E+00  0.00000000E+00  0.00000000E+00  0.00000000E+00  0.00000000E+00
  0.00000000E+00  0.00000000E+00  0.00000000E+00  0.00000000E+00  0.00000000E+00
  0.00000000E+00  0.00000000E+00  0.00000000E+00  0.00000000E+00  0.00000000E+00
  0.00000000E+00  0.00000000E+00  0.00000000E+00  0.00000000E+00  0.00000000E+00
  0.00000000E+00  0.00000000E+00  0.00000000E+00  0.00000000E+00  0.00000000E+00
  0.00000000E+00  0.00000000E+00  0.00000000E+00  0.00000000E+00  0.00000000E+00
  0.00000000E+00  0.00000000E+00  0.00000000E+00  0.00000000E+00  0.00000000E+00
  0.00000000E+00  0.00000000E+00  0.00000000E+00  0.00000000E+00  0.00000000E+00
  0.00000000E+00  0.00000000E+00  0.00000000E+00  0.00000000E+00  0.00000000E+00
  0.00000000E+00  0.00000000E+00  0.00000000E+00  0.00000000E+00  0.00000000E+00
  0.00000000E+00  0.00000000E+00  0.00000000E+00  0.00000000E+00  0.00000000E+00
  0.00000000E+00  0.00000000E+00  0.00000000E+00  0.00000000E+00  0.00000000E+00
  0.00000000E+00  0.00000000E+00  0.00000000E+00  0.00000000E+00  0.00000000E+00
  0.00000000E+00  0.00000000E+00  0.00000000E+00  0.00000000E+00  0.00000000E+00
  0.00000000E+00  0.00000000E+00  0.00000000E+00  0.00000000E+00  0.00000000E+00
  0.00000000E+00  0.00000000E+00  0.00000000E+00  0.00000000E+00  0.00000000E+00
  0.00000000E+00  0.00000000E+00  0.00000000E+00  0.00000000E+00  0.00000000E+00
  0.00000000E+00  0.00000000E+00  0.00000000E+00  0.00000000E+00  0.00000000E+00
  0.00000000E+00  0.00000000E+00  0.00000000E+00  0.00000000E+00  0.00000000E+00
  0.00000000E+00  0.00000000E+00  0.00000000E+00  0.00000000E+00  0.00000000E+00
  0.00000000E+00  0.00000000E+00  0.00000000E+00  0.00000000E+00  0.00000000E+00
  0.00000000E+00  0.00000000E+00  0.00000000E+00  0.00000000E+00  0.00000000E+00
  0.00000000E+00  0.00000000E+00  0.00000000E+00  0.00000000E+00  0.00000000E+00
  0.00000000E+00  0.00000000E+00  0.00000000E+00  0.00000000E+00  0.00000000E+00
  0.00000000E+00  0.00000000E+00  0.00000000E+00  0.00000000E+00  0.00000000E+00
  0.00000000E+00  0.00000000E+00  0.00000000E+00  0.00000000E+00  0.00000000E+00
  0.00000000E+00  0.00000000E+00  0.00000000E+00  0.00000000E+00  0.00000000E+00
  0.00000000E+00  0.00000000E+00  0.00000000E+00  0.00000000E+00  0.00000000E+00
  0.00000000E+00  0.00000000E+00  0.00000000E+00  0.00000000E+00  0.00000000E+00
  0.00000000E+00  0.00000000E+00  0.00000000E+00  0.00000000E+00  0.00000000E+00
  0.00000000E+00  0.00000000E+00  0.00000000E+00  0.00000000E+00  0.00000000E+00
  0.00000000E+00  0.00000000E+00  0.00000000E+00  0.00000000E+00  0.00000000E+00
  0.00000000E+00  0.00000000E+00  0.00000000E+00  0.00000000E+00  0.00000000E+00
  0.00000000E+00  0.00000000E+00  0.00000000E+00  0.00000000E+00  0.00000000E+00
  0.00000000E+00  0.00000000E+00  0.00000000E+00  0.00000000E+00  0.00000000E+00
  0.00000000E+00  0.00000000E+00  0.00000000E+00  0.00000000E+00  0.00000000E+00
  2.26000000E-01  4.43000000E-01  1.01000000E-01  1.47000000E-01  1.92000000E-01
  2.40000000E-01  2.75000000E-01  3.03000000E-01  3.25000000E-01  4.13000000E-01
  9.60000000E-02  1.35000000E-01  1.73000000E-01  2.11000000E-01  2.48000000E-01
  2.86000000E-01  3.23000000E-01  3.60000000E-01  8.20000000E-02  1.04000000E-01
  1.17000000E-01  1.23000000E-01  1.29000000E-01  1.34000000E-01  1.40000000E-01
  1.44000000E-01  1.48000000E-01  1.52000000E-01  1.55000000E-01  1.76000000E-01
  1.98000000E-01  2.19000000E-01  2.39000000E-01  2.60000000E-01  2.80000000E-01
  3.00000000E-01  7.90000000E-02  9.90000000E-02  1.19000000E-01  1.26000000E-01
  1.33000000E-01  1.40000000E-01  1.47000000E-01  1.53000000E-01  1.58000000E-01
  1.63000000E-01  1.57000000E-01  1.70000000E-01  1.87000000E-01  2.03000000E-01
  2.19000000E-01  2.34000000E-01  2.50000000E-01  2.65000000E-01  7.40000000E-02
  9.20000000E-02  1.05000000E-01  1.06000000E-01  1.07000000E-01  1.08000000E-01
  1.09000000E-01  1.10000000E-01  1.11000000E-01  1.12000000E-01  1.13000000E-01
  1.14000000E-01  1.15000000E-01  1.16000000E-01  1.17000000E-01  1.17000000E-01
  1.26000000E-01  1.36000000E-01  1.46000000E-01  1.55000000E-01  1.65000000E-01
  1.73000000E-01  1.82000000E-01  1.90000000E-01  1.62000000E-01  1.78000000E-01
  1.10000000E-01  1.35000000E-01  1.59000000E-01  1.83000000E-01  2.07000000E-01
  2.31000000E-01  6.90000000E-02  9.40000000E-02  1.02000000E-01  1.03000000E-01
  1.05000000E-01  1.07000000E-01  1.09000000E-01  1.11000000E-01  1.13000000E-01
  1.15000000E-01  1.17000000E-01  1.19000000E-01  1.20000000E-01  1.22000000E-01
  1.24000000E-01  1.26000000E-01  1.28000000E-01  1.28000000E-01  1.28000000E-01
  1.28000000E-01  1.28000000E-01  1.28000000E-01  1.28000000E-01  1.28000000E-01
  1.28000000E-01  1.28000000E-01  1.28000000E-01  1.28000000E-01  1.28000000E-01
  1.28000000E-01  1.28000000E-01  1.28000000E-01  1.28000000E-01  1.28000000E-01
  1.28000000E-01  1.28000000E-01  1.28000000E-01  1.28000000E-01  1.28000000E-01
  1.28000000E-01  1.28000000E-01  1.28000000E-01  1.28000000E-01  1.28000000E-01
  1.28000000E-01  1.28000000E-01  1.28000000E-01  1.28000000E-01  1.28000000E-01
  1.28000000E-01  1.28000000E-01  1.28000000E-01  1.28000000E-01  1.28000000E-01
  1.28000000E-01  1.28000000E-01  1.28000000E-01  1.28000000E-01  1.28000000E-01
  1.28000000E-01  1.28000000E-01  1.28000000E-01  1.28000000E-01  1.28000000E-01
  1.28000000E-01  1.28000000E-01  1.28000000E-01  1.28000000E-01  1.28000000E-01
  1.28000000E-01  1.28000000E-01  1.28000000E-01  1.28000000E-01  1.28000000E-01
  1.28000000E-01  1.28000000E-01  1.28000000E-01  1.28000000E-01  1.28000000E-01
  1.28000000E-01  1.28000000E-01  1.28000000E-01  1.28000000E-01  1.28000000E-01
  1.28000000E-01  1.28000000E-01  1.28000000E-01  1.28000000E-01  1.28000000E-01
  1.28000000E-01  1.28000000E-01  1.28000000E-01  1.28000000E-01  1.28000000E-01
  1.28000000E-01  1.28000000E-01  1.28000000E-01  1.28000000E-01  1.28000000E-01
  1.28000000E-01  1.28000000E-01  1.28000000E-01  1.28000000E-01  1.28000000E-01
  1.28000000E-01  1.28000000E-01  1.28000000E-01  1.28000000E-01  1.28000000E-01
  1.28000000E-01  1.28000000E-01  1.28000000E-01  1.28000000E-01  1.28000000E-01
  5.47000000E-01  5.92000000E-01  5.99000000E-01  6.68000000E-01  6.98000000E-01
  7.18000000E-01  7.26000000E-01  7.36000000E-01  7.43000000E-01  7.45000000E-01
  6.07000000E-01  6.66000000E-01  6.93000000E-01  7.09000000E-01  7.20000000E-01
  7.29000000E-01  7.35000000E-01  7.40000000E-01  6.08000000E-01  7.34000000E-01
  7.46000000E-01  7.55000000E-01  7.61000000E-01  7.65000000E-01  7.67000000E-01
  7.60000000E-01  7.49000000E-01  7.33000000E-01  7.08000000E-01  6.48000000E-01
  6.88000000E-01  7.09000000E-01  7.22000000E-01  7.31000000E-01  7.38000000E-01
  7.44000000E-01  6.09000000E-01  7.30000000E-01  7.41000000E-01  7.52000000E-01
  7.58000000E-01  7.63000000E-01  7.66000000E-01  7.58000000E-01  7.48000000E-01
  7.33000000E-01  7.01000000E-01  6.45000000E-01  6.86000000E-01  7.08000000E-01
  7.22000000E-01  7.31000000E-01  7.38000000E-01  7.44000000E-01  6.08000000E-01
  7.28000000E-01  7.32000000E-01  7.32000000E-01  7.32000000E-01  7.32000000E-01
  7.32000000E-01  7.32000000E-01  7.32000000E-01  7.32000000E-01  7.32000000E-01
  7.31000000E-01  7.31000000E-01  7.31000000E-01  7.31000000E-01  7.46000000E-01
  7.37000000E-01  7.46000000E-01  7.51000000E-01  7.55000000E-01  7.58000000E-01
  7.47000000E-01  7.32000000E-01  7.11000000E-01  7.41000000E-01  7.07000000E-01
  7.47000000E-01  7.43000000E-01  7.42000000E-01  7.42000000E-01  7.43000000E-01
  7.44000000E-01  6.05000000E-01  7.24000000E-01  7.26000000E-01  7.26000000E-01
  7.27000000E-01  7.27000000E-01  7.27000000E-01  7.28000000E-01  7.28000000E-01
  7.28000000E-01  7.28000000E-01  7.28000000E-01  7.29000000E-01  7.29000000E-01
  7.29000000E-01  7.29000000E-01  7.29000000E-01  7.29000000E-01  7.29000000E-01
  7.29000000E-01  7.29000000E-01  7.29000000E-01  7.29000000E-01  7.29000000E-01
  7.29000000E-01  7.29000000E-01  7.29000000E-01  7.29000000E-01  7.29000000E-01
  7.29000000E-01  7.29000000E-01  7.29000000E-01  7.29000000E-01  7.29000000E-01
  7.29000000E-01  7.29000000E-01  7.29000000E-01  7.29000000E-01  7.29000000E-01
  7.29000000E-01  7.29000000E-01  7.29000000E-01  7.29000000E-01  7.29000000E-01
  7.29000000E-01  7.29000000E-01  7.29000000E-01  7.29000000E-01  7.29000000E-01
  7.29000000E-01  7.29000000E-01  7.29000000E-01  7.29000000E-01  7.29000000E-01
  7.29000000E-01  7.29000000E-01  7.29000000E-01  7.29000000E-01  7.29000000E-01
  7.29000000E-01  7.29000000E-01  7.29000000E-01  7.29000000E-01  7.29000000E-01
  7.29000000E-01  7.29000000E-01  7.29000000E-01  7.29000000E-01  7.29000000E-01
  7.29000000E-01  7.29000000E-01  7.29000000E-01  7.29000000E-01  7.29000000E-01
  7.29000000E-01  7.29000000E-01  7.29000000E-01  7.29000000E-01  7.29000000E-01
  7.29000000E-01  7.29000000E-01  7.29000000E-01  7.29000000E-01  7.29000000E-01
  7.29000000E-01  7.29000000E-01  7.29000000E-01  7.29000000E-01  7.29000000E-01
  7.29000000E-01  7.29000000E-01  7.29000000E-01  7.29000000E-01  7.29000000E-01
  7.29000000E-01  7.29000000E-01  7.29000000E-01  7.29000000E-01  7.29000000E-01
  7.29000000E-01  7.29000000E-01  7.29000000E-01  7.29000000E-01  7.29000000E-01
  7.29000000E-01  7.29000000E-01  7.29000000E-01  7.29000000E-01  7.29000000E-01
  7.29000000E-01  7.29000000E-01  7.29000000E-01  7.29000000E-01  7.29000000E-01
  1.00000000E+00  1.70400000E+00  3.23000000E-01  3.89000000E-01  4.67000000E-01
  5.67000000E-01  6.36000000E-01  6.64000000E-01  6.96000000E-01  8.79000000E-01
  3.07000000E-01  3.48000000E-01  4.00000000E-01  4.54000000E-01  5.09000000E-01
  5.65000000E-01  6.21000000E-01  6.77000000E-01  2.56000000E-01  3.50000000E-01
  3.64000000E-01  3.62000000E-01  3.62000000E-01  3.62000000E-01  3.62000000E-01
  3.65000000E-01  3.69000000E-01  3.75000000E-01  3.86000000E-01  4.46000000E-01
  4.55000000E-01  4.74000000E-01  4.96000000E-01  5.20000000E-01  5.45000000E-01
  5.70000000E-01  2.45000000E-01  3.22000000E-01  3.55000000E-01  3.59000000E-01
  3.64000000E-01  3.70000000E-01  3.76000000E-01  3.85000000E-01  3.95000000E-01
  4.08000000E-01  3.76000000E-01  4.23000000E-01  4.22000000E-01  4.32000000E-01
  4.45000000E-01  4.59000000E-01  4.75000000E-01  4.91000000E-01  2.28000000E-01
  2.92000000E-01  2.89000000E-01  2.92000000E-01  2.95000000E-01  2.98000000E-01
  3.00000000E-01  3.03000000E-01  3.06000000E-01  3.09000000E-01  3.12000000E-01
  3.15000000E-01  3.18000000E-01  3.21000000E-01  3.24000000E-01  3.61000000E-01
  3.69000000E-01  3.70000000E-01  3.72000000E-01  3.75000000E-01  3.78000000E-01
  3.85000000E-01  3.94000000E-01  4.07000000E-01  5.26000000E-01  6.21000000E-01
  3.36000000E-01  3.54000000E-01  3.71000000E-01  3.86000000E-01  4.02000000E-01
  4.17000000E-01  2.09000000E-01  2.94000000E-01  2.65000000E-01  2.72000000E-01
  2.78000000E-01  2.84000000E-01  2.91000000E-01  2.97000000E-01  3.03000000E-01
  3.10000000E-01  3.16000000E-01  3.22000000E-01  3.29000000E-01  3.35000000E-01
  3.41000000E-01  3.48000000E-01  3.54000000E-01  3.54000000E-01  3.54000000E-01
  3.54000000E-01  3.54000000E-01  3.54000000E-01  3.54000000E-01  3.54000000E-01
  3.54000000E-01  3.54000000E-01  3.54000000E-01  3.54000000E-01  3.54000000E-01
  3.54000000E-01  3.54000000E-01  3.54000000E-01  3.54000000E-01  3.54000000E-01
  3.54000000E-01  3.54000000E-01  3.54000000E-01  3.54000000E-01  3.54000000E-01
  3.54000000E-01  3.54000000E-01  3.54000000E-01  3.54000000E-01  3.54000000E-01
  3.54000000E-01  3.54000000E-01  3.54000000E-01  3.54000000E-01  3.54000000E-01
  3.54000000E-01  3.54000000E-01  3.54000000E-01  3.54000000E-01  3.54000000E-01
  3.54000000E-01  3.54000000E-01  3.54000000E-01  3.54000000E-01  3.54000000E-01
  3.54000000E-01  3.54000000E-01  3.54000000E-01  3.54000000E-01  3.54000000E-01
  3.54000000E-01  3.54000000E-01  3.54000000E-01  3.54000000E-01  3.54000000E-01
  3.54000000E-01  3.54000000E-01  3.54000000E-01  3.54000000E-01  3.54000000E-01
  3.54000000E-01  3.54000000E-01  3.54000000E-01  3.54000000E-01  3.54000000E-01
  3.54000000E-01  3.54000000E-01  3.54000000E-01  3.54000000E-01  3.54000000E-01
  3.54000000E-01  3.54000000E-01  3.54000000E-01  3.54000000E-01  3.54000000E-01
  3.54000000E-01  3.54000000E-01  3.54000000E-01  3.54000000E-01  3.54000000E-01
  3.54000000E-01  3.54000000E-01  3.54000000E-01  3.54000000E-01  3.54000000E-01
  3.54000000E-01  3.54000000E-01  3.54000000E-01  3.54000000E-01  3.54000000E-01
  3.54000000E-01  3.54000000E-01  3.54000000E-01  3.54000000E-01  3.54000000E-01
  3.54000000E-01  3.54000000E-01  3.54000000E-01  3.54000000E-01  3.54000000E-01
  2.74000000E-01  2.96000000E-01  5.80000000E-02  4.40000000E-02  3.90000000E-02
  3.90000000E-02  3.60000000E-02  3.20000000E-02  2.90000000E-02  3.30000000E-02
  5.50000000E-02  3.90000000E-02  3.30000000E-02  3.00000000E-02  2.80000000E-02
  2.60000000E-02  2.50000000E-02  2.50000000E-02  4.50000000E-02  4.40000000E-02
  3.30000000E-02  2.50000000E-02  2.10000000E-02  1.80000000E-02  1.50000000E-02
  1.80000000E-02  2.10000000E-02  2.50000000E-02  3.30000000E-02  5.00000000E-02
  3.80000000E-02  3.10000000E-02  2.70000000E-02  2.40000000E-02  2.20000000E-02
  2.10000000E-02  4.30000000E-02  4.00000000E-02  3.20000000E-02  2.50000000E-02
  2.10000000E-02  1.80000000E-02  1.60000000E-02  1.90000000E-02  2.20000000E-02
  2.80000000E-02  3.10000000E-02  4.70000000E-02  3.40000000E-02  2.80000000E-02
  2.40000000E-02  2.10000000E-02  1.90000000E-02  1.80000000E-02  3.90000000E-02
  3.60000000E-02  2.50000000E-02  2.50000000E-02  2.50000000E-02  2.60000000E-02
  2.60000000E-02  2.60000000E-02  2.70000000E-02  2.70000000E-02  2.70000000E-02
  2.70000000E-02  2.80000000E-02  2.80000000E-02  2.80000000E-02  3.30000000E-02
  3.30000000E-02  2.60000000E-02  2.10000000E-02  1.80000000E-02  1.60000000E-02
  1.80000000E-02  2.20000000E-02  2.60000000E-02  4.90000000E-02  8.20000000E-02
  3.00000000E-02  2.40000000E-02  2.10000000E-02  1.80000000E-02  1.60000000E-02
  1.50000000E-02  3.50000000E-02  3.60000000E-02  2.20000000E-02  2.30000000E-02
  2.40000000E-02  2.40000000E-02  2.50000000E-02  2.50000000E-02  2.60000000E-02
  2.70000000E-02  2.70000000E-02  2.80000000E-02  2.80000000E-02  2.90000000E-02
  3.00000000E-02  3.00000000E-02  3.10000000E-02  3.10000000E-02  3.10000000E-02
  3.10000000E-02  3.10000000E-02  3.10000000E-02  3.10000000E-02  3.10000000E-02
  3.10000000E-02  3.10000000E-02  3.10000000E-02  3.10000000E-02  3.10000000E-02
  3.10000000E-02  3.10000000E-02  3.10000000E-02  3.10000000E-02  3.10000000E-02
  3.10000000E-02  3.10000000E-02  3.10000000E-02  3.10000000E-02  3.10000000E-02
  3.10000000E-02  3.10000000E-02  3.10000000E-02  3.10000000E-02  3.10000000E-02
  3.10000000E-02  3.10000000E-02  3.10000000E-02  3.10000000E-02  3.10000000E-02
  3.10000000E-02  3.10000000E-02  3.10000000E-02  3.10000000E-02  3.10000000E-02
  3.10000000E-02  3.10000000E-02  3.10000000E-02  3.10000000E-02  3.10000000E-02
  3.10000000E-02  3.10000000E-02  3.10000000E-02  3.10000000E-02  3.10000000E-02
  3.10000000E-02  3.10000000E-02  3.10000000E-02  3.10000000E-02  3.10000000E-02
  3.10000000E-02  3.10000000E-02  3.10000000E-02  3.10000000E-02  3.10000000E-02
  3.10000000E-02  3.10000000E-02  3.10000000E-02  3.10000000E-02  3.10000000E-02
  3.10000000E-02  3.10000000E-02  3.10000000E-02  3.10000000E-02  3.10000000E-02
  3.10000000E-02  3.10000000E-02  3.10000000E-02  3.10000000E-02  3.10000000E-02
  3.10000000E-02  3.10000000E-02  3.10000000E-02  3.10000000E-02  3.10000000E-02
  3.10000000E-02  3.10000000E-02  3.10000000E-02  3.10000000E-02  3.10000000E-02
  3.10000000E-02  3.10000000E-02  3.10000000E-02  3.10000000E-02  3.10000000E-02
  3.10000000E-02  3.10000000E-02  3.10000000E-02  3.10000000E-02  3.10000000E-02
  3.10000000E-02  3.10000000E-02  3.10000000E-02  3.10000000E-02  3.10000000E-02
 -5.92770000E-01 -9.17860000E-01 -2.48668000E+00 -8.36430000E-01 -3.18470000E-01
 -4.55790000E-01 -5.70730000E-01 -6.77940000E-01 -7.69860000E-01 -8.51140000E-01
 -1.51908000E+00 -3.18830000E-01 -2.17900000E-01 -3.01260000E-01 -3.72750000E-01
 -4.15890000E-01 -4.45930000E-01 -5.91320000E-01 -9.56370000E-01 -2.88450000E-01
 -4.87320000E-01 -6.34280000E-01 -7.17490000E-01 -7.91980000E-01 -8.68490000E-01
 -9.17520000E-01 -9.54890000E-01 -9.88460000E-01 -1.50055000E+00 -2.92560000E-01
 -2.14960000E-01 -2.91180000E-01 -3.42080000E-01 -3.84480000E-01 -4.34940000E-01
 -5.24310000E-01 -8.10070000E-01 -2.58460000E-01 -4.35550000E-01 -5.32740000E-01
 -6.08450000E-01 -6.10260000E-01 -7.58920000E-01 -8.90130000E-01 -8.45780000E-01
 -8.69340000E-01 -1.38234000E+00 -2.64850000E-01 -1.97280000E-01 -2.65040000E-01
 -2.94470000E-01 -3.16570000E-01 -3.63590000E-01 -4.57840000E-01 -8.61830000E-01
 -1.33004000E+00 -6.82880000E-01 -6.25540000E-01 -6.35430000E-01 -8.79690000E-01
 -9.02690000E-01 -9.59650000E-01 -1.01869000E+00 -6.81170000E-01 -7.96500000E-01
 -9.04950000E-01 -8.34790000E-01 -9.01560000E-01 -9.74130000E-01 -1.03326000E+00
 -7.15490000E-01 -7.83960000E-01 -8.28380000E-01 -5.61040000E-01 -1.03841000E+00
 -8.62500000E-01 -9.59300000E-01 -1.01755000E+00 -7.64900000E-01 -1.29467000E+00
 -1.92740000E-01 -2.56010000E-01 -3.19820000E-01 -1.94660000E-01 -2.60090000E-01
 -4.27990000E-01  0.00000000E+00  0.00000000E+00  0.00000000E+00  0.00000000E+00
  0.00000000E+00  0.00000000E+00  0.00000000E+00  0.00000000E+00  0.00000000E+00
  0.00000000E+00  0.00000000E+00  0.00000000E+00  0.00000000E+00  0.00000000E+00
  0.00000000E+00  0.00000000E+00  0.00000000E+00  0.00000000E+00  0.00000000E+00
  0.00000000E+00  0.00000000E+00  0.00000000E+00  0.00000000E+00  0.00000000E+00
  0.00000000E+00  0.00000000E+00  0.00000000E+00  0.00000000E+00  0.00000000E+00
  0.00000000E+00  0.00000000E+00  0.00000000E+00  0.00000000E+00  0.00000000E+00
  0.00000000E+00  0.00000000E+00  0.00000000E+00  0.00000000E+00  0.00000000E+00
  0.00000000E+00  0.00000000E+00  0.00000000E+00  0.00000000E+00  0.00000000E+00
  0.00000000E+00  0.00000000E+00  0.00000000E+00  0.00000000E+00  0.00000000E+00
  0.00000000E+00  0.00000000E+00  0.00000000E+00  0.00000000E+00  0.00000000E+00
  0.00000000E+00  0.00000000E+00  0.00000000E+00  0.00000000E+00  0.00000000E+00
  0.00000000E+00  0.00000000E+00  0.00000000E+00  0.00000000E+00  0.00000000E+00
  0.00000000E+00  0.00000000E+00  0.00000000E+00  0.00000000E+00  0.00000000E+00
  0.00000000E+00  0.00000000E+00  0.00000000E+00  0.00000000E+00  0.00000000E+00
  0.00000000E+00  0.00000000E+00  0.00000000E+00  0.00000000E+00  0.00000000E+00
  0.00000000E+00  0.00000000E+00  0.00000000E+00  0.00000000E+00  0.00000000E+00
  0.00000000E+00  0.00000000E+00  0.00000000E+00  0.00000000E+00  0.00000000E+00
  0.00000000E+00  0.00000000E+00  0.00000000E+00  0.00000000E+00  0.00000000E+00
  0.00000000E+00  0.00000000E+00  0.00000000E+00  0.00000000E+00  0.00000000E+00
  0.00000000E+00  0.00000000E+00  0.00000000E+00  0.00000000E+00  0.00000000E+00
  0.00000000E+00  0.00000000E+00  0.00000000E+00  0.00000000E+00  0.00000000E+00
  0.00000000E+00  0.00000000E+00  0.00000000E+00  0.00000000E+00  0.00000000E+00
  1.90440000E+00  1.36430000E+00  4.84000000E-01  7.31600000E+00  9.24030000E+00
  8.78200000E+00  5.61290000E+00  4.83340000E+00  3.24870000E+00  2.71090000E+00
  2.01130000E+00  1.50282000E+01  1.46788000E+01  2.13546000E+01  2.38290000E+01
  1.98022000E+01  1.50468000E+01  1.09745000E+01  1.27219000E+01  1.51949000E+01
  1.57342000E+01  2.79222000E+01  1.61366000E+01  2.21252000E+01  2.45676000E+01
  1.96016000E+01  1.79818000E+01  1.72396000E+01  5.01500000E+00  1.92898000E+01
  2.34477000E+01  2.23993000E+01  2.96586000E+01  2.60081000E+01  2.15580000E+01
  1.69594000E+01  1.56479000E+01  1.86897000E+01  1.93530000E+01  3.43444000E+01
  1.98480000E+01  2.72140000E+01  3.02182000E+01  2.41099000E+01  2.21176000E+01
  2.12047000E+01  7.56690000E+00  2.37264000E+01  2.93879000E+01  3.01278000E+01
  4.19382000E+01  3.85203000E+01  3.39511000E+01  2.75774000E+01  1.56460000E+01
  1.04460000E+01  2.01830000E+01  4.99540000E+01  4.76430000E+01  1.18690000E+01
  1.08670000E+01  9.96100000E+00  9.18700000E+00  3.67980000E+01  1.34070000E+01
  9.38200000E+00  9.81700000E+00  8.90800000E+00  8.40700000E+00  8.05800000E+00
  1.29600000E+01  2.67920000E+01  2.49300000E+01  3.45630000E+01  1.11860000E+01
  1.09440000E+01  1.01270000E+01  9.40400000E+00  1.36660000E+01  7.81000000E+00
  6.93600000E+01  5.86630000E+01  4.79690000E+01  4.52740000E+01  3.92290000E+01
  3.30660000E+01  0.00000000E+00  0.00000000E+00  0.00000000E+00  0.00000000E+00
  0.00000000E+00  0.00000000E+00  0.00000000E+00  0.00000000E+00  0.00000000E+00
  0.00000000E+00  0.00000000E+00  0.00000000E+00  0.00000000E+00  0.00000000E+00
  0.00000000E+00  0.00000000E+00  0.00000000E+00  0.00000000E+00  0.00000000E+00
  0.00000000E+00  0.00000000E+00  0.00000000E+00  0.00000000E+00  0.00000000E+00
  0.00000000E+00  0.00000000E+00  0.00000000E+00  0.00000000E+00  0.00000000E+00
  0.00000000E+00  0.00000000E+00  0.00000000E+00  0.00000000E+00  0.00000000E+00
  0.00000000E+00  0.00000000E+00  0.00000000E+00  0.00000000E+00  0.00000000E+00
  0.00000000E+00  0.00000000E+00  0.00000000E+00  0.00000000E+00  0.00000000E+00
  0.00000000E+00  0.00000000E+00  0.00000000E+00  0.00000000E+00  0.00000000E+00
  0.00000000E+00  0.00000000E+00  0.00000000E+00  0.00000000E+00  0.00000000E+00
  0.00000000E+00  0.00000000E+00  0.00000000E+00  0.00000000E+00  0.00000000E+00
  0.00000000E+00  0.00000000E+00  0.00000000E+00  0.00000000E+00  0.00000000E+00
  0.00000000E+00  0.00000000E+00  0.00000000E+00  0.00000000E+00  0.00000000E+00
  0.00000000E+00  0.00000000E+00  0.00000000E+00  0.00000000E+00  0.00000000E+00
  0.00000000E+00  0.00000000E+00  0.00000000E+00  0.00000000E+00  0.00000000E+00
  0.00000000E+00  0.00000000E+00  0.00000000E+00  0.00000000E+00  0.00000000E+00
  0.00000000E+00  0.00000000E+00  0.00000000E+00  0.00000000E+00  0.00000000E+00
  0.00000000E+00  0.00000000E+00  0.00000000E+00  0.00000000E+00  0.00000000E+00
  0.00000000E+00  0.00000000E+00  0.00000000E+00  0.00000000E+00  0.00000000E+00
  0.00000000E+00  0.00000000E+00  0.00000000E+00  0.00000000E+00  0.00000000E+00
  0.00000000E+00  0.00000000E+00  0.00000000E+00  0.00000000E+00  0.00000000E+00
  0.00000000E+00  0.00000000E+00  0.00000000E+00  0.00000000E+00  0.00000000E+00
  0.00000000E+00  0.00000000E+00  0.00000000E+00  0.00000000E+00  0.00000000E+00
  0.00000000E+00  0.00000000E+00  0.00000000E+00  0.00000000E+00  0.00000000E+00
  0.00000000E+00  0.00000000E+00  0.00000000E+00  0.00000000E+00  0.00000000E+00
  0.00000000E+00  0.00000000E+00  0.00000000E+00  0.00000000E+00  0.00000000E+00
  0.00000000E+00  0.00000000E+00  0.00000000E+00  0.00000000E+00  0.00000000E+00
  0.00000000E+00  0.00000000E+00  0.00000000E+00  0.00000000E+00  0.00000000E+00
  0.00000000E+00  0.00000000E+00  0.00000000E+00  0.00000000E+00  0.00000000E+00
  0.00000000E+00  0.00000000E+00  0.00000000E+00  0.00000000E+00  0.00000000E+00
  0.00000000E+00  0.00000000E+00  0.00000000E+00  0.00000000E+00  0.00000000E+00
  0.00000000E+00  0.00000000E+00  0.00000000E+00  0.00000000E+00  0.00000000E+00
  0.00000000E+00  0.00000000E+00  0.00000000E+00  0.00000000E+00  0.00000000E+00
  0.00000000E+00  0.00000000E+00  0.00000000E+00  0.00000000E+00  0.00000000E+00
  0.00000000E+00  0.00000000E+00  0.00000000E+00  0.00000000E+00  0.00000000E+00
  0.00000000E+00  0.00000000E+00  0.00000000E+00  0.00000000E+00  0.00000000E+00
  0.00000000E+00  0.00000000E+00  0.00000000E+00  0.00000000E+00  0.00000000E+00
  0.00000000E+00  0.00000000E+00  0.00000000E+00  0.00000000E+00  0.00000000E+00
  0.00000000E+00  0.00000000E+00  0.00000000E+00  0.00000000E+00  0.00000000E+00
  0.00000000E+00  0.00000000E+00  0.00000000E+00  0.00000000E+00  0.00000000E+00
  0.00000000E+00  0.00000000E+00  0.00000000E+00  0.00000000E+00  0.00000000E+00
  0.00000000E+00  0.00000000E+00  0.00000000E+00  0.00000000E+00  0.00000000E+00
  0.00000000E+00  0.00000000E+00  0.00000000E+00  0.00000000E+00  0.00000000E+00
  0.00000000E+00  0.00000000E+00  0.00000000E+00  0.00000000E+00  0.00000000E+00
  0.00000000E+00  0.00000000E+00  0.00000000E+00  0.00000000E+00  0.00000000E+00
  0.00000000E+00  0.00000000E+00  0.00000000E+00  0.00000000E+00  0.00000000E+00
  0.00000000E+00  0.00000000E+00  0.00000000E+00  0.00000000E+00  0.00000000E+00
  0.00000000E+00  0.00000000E+00  0.00000000E+00  0.00000000E+00  0.00000000E+00
  0.00000000E+00  0.00000000E+00  0.00000000E+00  0.00000000E+00  0.00000000E+00
  0.00000000E+00  0.00000000E+00  0.00000000E+00  0.00000000E+00  0.00000000E+00
  0.00000000E+00  0.00000000E+00  0.00000000E+00  0.00000000E+00  0.00000000E+00
  0.00000000E+00  0.00000000E+00  0.00000000E+00  0.00000000E+00  0.00000000E+00
  0.00000000E+00  0.00000000E+00  0.00000000E+00  0.00000000E+00  0.00000000E+00
  0.00000000E+00  0.00000000E+00  0.00000000E+00  0.00000000E+00  0.00000000E+00
  0.00000000E+00  0.00000000E+00  0.00000000E+00  0.00000000E+00  0.00000000E+00
  0.00000000E+00  0.00000000E+00  0.00000000E+00  0.00000000E+00  0.00000000E+00
  0.00000000E+00  0.00000000E+00  0.00000000E+00  0.00000000E+00  0.00000000E+00
  0.00000000E+00  0.00000000E+00  0.00000000E+00  0.00000000E+00  0.00000000E+00
  0.00000000E+00  0.00000000E+00  0.00000000E+00  0.00000000E+00  0.00000000E+00
  0.00000000E+00  0.00000000E+00  0.00000000E+00  0.00000000E+00  0.00000000E+00
  0.00000000E+00  0.00000000E+00  0.00000000E+00  0.00000000E+00  0.00000000E+00
  0.00000000E+00  0.00000000E+00  0.00000000E+00  0.00000000E+00  0.00000000E+00
  0.00000000E+00  0.00000000E+00  0.00000000E+00  0.00000000E+00  0.00000000E+00
  0.00000000E+00  0.00000000E+00  0.00000000E+00  0.00000000E+00  0.00000000E+00
  0.00000000E+00  0.00000000E+00  0.00000000E+00  0.00000000E+00  0.00000000E+00
  0.00000000E+00  0.00000000E+00  0.00000000E+00  0.00000000E+00  0.00000000E+00
  0.00000000E+00  0.00000000E+00  0.00000000E+00  0.00000000E+00  0.00000000E+00
  0.00000000E+00  0.00000000E+00  0.00000000E+00  0.00000000E+00  0.00000000E+00
  0.00000000E+00  0.00000000E+00  0.00000000E+00  0.00000000E+00  0.00000000E+00
  0.00000000E+00  0.00000000E+00  0.00000000E+00  0.00000000E+00  0.00000000E+00
  0.00000000E+00  0.00000000E+00  0.00000000E+00  0.00000000E+00  0.00000000E+00
  0.00000000E+00  0.00000000E+00  0.00000000E+00  0.00000000E+00  0.00000000E+00
  0.00000000E+00  0.00000000E+00  0.00000000E+00  0.00000000E+00  0.00000000E+00
  0.00000000E+00  0.00000000E+00  0.00000000E+00  0.00000000E+00  0.00000000E+00
  0.00000000E+00  0.00000000E+00  0.00000000E+00  0.00000000E+00  0.00000000E+00
  0.00000000E+00  0.00000000E+00  0.00000000E+00  0.00000000E+00  0.00000000E+00
  0.00000000E+00  0.00000000E+00  0.00000000E+00  0.00000000E+00  0.00000000E+00
  0.00000000E+00  0.00000000E+00  0.00000000E+00  0.00000000E+00  0.00000000E+00
  0.00000000E+00  0.00000000E+00  0.00000000E+00  0.00000000E+00  0.00000000E+00
  0.00000000E+00  0.00000000E+00  0.00000000E+00  0.00000000E+00  0.00000000E+00
  0.00000000E+00  0.00000000E+00  0.00000000E+00  0.00000000E+00  0.00000000E+00
  0.00000000E+00  0.00000000E+00  0.00000000E+00  0.00000000E+00  0.00000000E+00
  0.00000000E+00  0.00000000E+00  0.00000000E+00  0.00000000E+00  0.00000000E+00
  0.00000000E+00  0.00000000E+00  0.00000000E+00  0.00000000E+00  0.00000000E+00
  0.00000000E+00  0.00000000E+00  0.00000000E+00  0.00000000E+00  0.00000000E+00
  0.00000000E+00  0.00000000E+00  0.00000000E+00  0.00000000E+00  0.00000000E+00
  0.00000000E+00  0.00000000E+00  0.00000000E+00  0.00000000E+00  0.00000000E+00
  0.00000000E+00  0.00000000E+00  0.00000000E+00  0.00000000E+00  0.00000000E+00
  0.00000000E+00  0.00000000E+00  0.00000000E+00  0.00000000E+00  0.00000000E+00
  0.00000000E+00  0.00000000E+00  0.00000000E+00  0.00000000E+00  0.00000000E+00
  0.00000000E+00  0.00000000E+00  0.00000000E+00  0.00000000E+00  0.00000000E+00
  0.00000000E+00  0.00000000E+00  0.00000000E+00  0.00000000E+00  0.00000000E+00
  0.00000000E+00  0.00000000E+00  0.00000000E+00  0.00000000E+00  0.00000000E+00
  0.00000000E+00  0.00000000E+00  0.00000000E+00  0.00000000E+00  0.00000000E+00
  0.00000000E+00  0.00000000E+00  0.00000000E+00  0.00000000E+00  0.00000000E+00
  0.00000000E+00  0.00000000E+00  0.00000000E+00  0.00000000E+00  0.00000000E+00
  0.00000000E+00  0.00000000E+00  0.00000000E+00  0.00000000E+00  0.00000000E+00
  0.00000000E+00  0.00000000E+00  0.00000000E+00  0.00000000E+00  0.00000000E+00
  0.00000000E+00  0.00000000E+00  0.00000000E+00  0.00000000E+00  0.00000000E+00
  0.00000000E+00  0.00000000E+00  0.00000000E+00  0.00000000E+00  0.00000000E+00
  0.00000000E+00  0.00000000E+00  0.00000000E+00  0.00000000E+00  0.00000000E+00
  0.00000000E+00  0.00000000E+00  0.00000000E+00  0.00000000E+00  0.00000000E+00
  0.00000000E+00  0.00000000E+00  0.00000000E+00  0.00000000E+00  0.00000000E+00
  0.00000000E+00  0.00000000E+00  0.00000000E+00  0.00000000E+00  0.00000000E+00
  0.00000000E+00  0.00000000E+00  0.00000000E+00  0.00000000E+00  0.00000000E+00
  0.00000000E+00  0.00000000E+00  0.00000000E+00  0.00000000E+00  0.00000000E+00
  0.00000000E+00  0.00000000E+00  0.00000000E+00  0.00000000E+00  0.00000000E+00
  0.00000000E+00  0.00000000E+00  0.00000000E+00  0.00000000E+00  0.00000000E+00
  0.00000000E+00  0.00000000E+00  0.00000000E+00  0.00000000E+00  0.00000000E+00
  0.00000000E+00  0.00000000E+00  0.00000000E+00  0.00000000E+00  0.00000000E+00
  0.00000000E+00  0.00000000E+00  0.00000000E+00  0.00000000E+00  0.00000000E+00
  0.00000000E+00  0.00000000E+00  0.00000000E+00  0.00000000E+00  0.00000000E+00
  0.00000000E+00  0.00000000E+00  0.00000000E+00  0.00000000E+00  0.00000000E+00
  0.00000000E+00  0.00000000E+00  0.00000000E+00  0.00000000E+00  0.00000000E+00
  0.00000000E+00  0.00000000E+00  0.00000000E+00  0.00000000E+00  0.00000000E+00
  0.00000000E+00  0.00000000E+00  0.00000000E+00  0.00000000E+00  0.00000000E+00
  0.00000000E+00  0.00000000E+00  0.00000000E+00  0.00000000E+00  0.00000000E+00
  0.00000000E+00  0.00000000E+00  0.00000000E+00  0.00000000E+00  0.00000000E+00
  0.00000000E+00  0.00000000E+00  0.00000000E+00  0.00000000E+00  0.00000000E+00
  0.00000000E+00  0.00000000E+00  0.00000000E+00  0.00000000E+00  0.00000000E+00
  0.00000000E+00  0.00000000E+00  0.00000000E+00  0.00000000E+00  0.00000000E+00
  0.00000000E+00  0.00000000E+00  0.00000000E+00  0.00000000E+00  0.00000000E+00
  0.00000000E+00  0.00000000E+00  0.00000000E+00  0.00000000E+00  0.00000000E+00
  0.00000000E+00  0.00000000E+00  0.00000000E+00  0.00000000E+00  0.00000000E+00
  0.00000000E+00  0.00000000E+00  0.00000000E+00  0.00000000E+00  0.00000000E+00
  0.00000000E+00  0.00000000E+00  0.00000000E+00  0.00000000E+00  0.00000000E+00
  0.00000000E+00  0.00000000E+00  0.00000000E+00  0.00000000E+00  0.00000000E+00
  0.00000000E+00  0.00000000E+00  0.00000000E+00  0.00000000E+00  0.00000000E+00
  0.00000000E+00  0.00000000E+00  0.00000000E+00  0.00000000E+00  0.00000000E+00
  0.00000000E+00  0.00000000E+00  0.00000000E+00  0.00000000E+00  0.00000000E+00
  0.00000000E+00  0.00000000E+00  0.00000000E+00  0.00000000E+00  0.00000000E+00
  0.00000000E+00  0.00000000E+00  0.00000000E+00  0.00000000E+00  0.00000000E+00
  0.00000000E+00  0.00000000E+00  0.00000000E+00  0.00000000E+00  0.00000000E+00
  0.00000000E+00  0.00000000E+00  0.00000000E+00  0.00000000E+00  0.00000000E+00
  0.00000000E+00  0.00000000E+00  0.00000000E+00  0.00000000E+00  0.00000000E+00
  0.00000000E+00  0.00000000E+00  0.00000000E+00  0.00000000E+00  0.00000000E+00
  0.00000000E+00  0.00000000E+00  0.00000000E+00  0.00000000E+00  0.00000000E+00
  0.00000000E+00  0.00000000E+00  0.00000000E+00  0.00000000E+00  0.00000000E+00
  0.00000000E+00  0.00000000E+00  0.00000000E+00  0.00000000E+00  0.00000000E+00
  0.00000000E+00  0.00000000E+00  0.00000000E+00  0.00000000E+00  0.00000000E+00
  0.00000000E+00  0.00000000E+00  0.00000000E+00  0.00000000E+00  0.00000000E+00
  0.00000000E+00  0.00000000E+00  0.00000000E+00  0.00000000E+00  0.00000000E+00
  0.00000000E+00  0.00000000E+00  0.00000000E+00  0.00000000E+00  0.00000000E+00
  0.00000000E+00  0.00000000E+00  0.00000000E+00  0.00000000E+00  0.00000000E+00
  0.00000000E+00  0.00000000E+00  0.00000000E+00  0.00000000E+00  0.00000000E+00
  0.00000000E+00  0.00000000E+00  0.00000000E+00  0.00000000E+00  0.00000000E+00
  0.00000000E+00  0.00000000E+00  0.00000000E+00  0.00000000E+00  0.00000000E+00
  0.00000000E+00  0.00000000E+00  0.00000000E+00  0.00000000E+00  0.00000000E+00
  0.00000000E+00  0.00000000E+00  0.00000000E+00  0.00000000E+00  0.00000000E+00
  0.00000000E+00  0.00000000E+00  0.00000000E+00  0.00000000E+00  0.00000000E+00
  0.00000000E+00  0.00000000E+00  0.00000000E+00  0.00000000E+00  0.00000000E+00
  0.00000000E+00  0.00000000E+00  0.00000000E+00  0.00000000E+00  0.00000000E+00
  0.00000000E+00  0.00000000E+00  0.00000000E+00  0.00000000E+00  0.00000000E+00
  0.00000000E+00  0.00000000E+00  0.00000000E+00  0.00000000E+00  0.00000000E+00
  0.00000000E+00  0.00000000E+00  0.00000000E+00  0.00000000E+00  0.00000000E+00
  0.00000000E+00  0.00000000E+00  0.00000000E+00  0.00000000E+00  0.00000000E+00
  0.00000000E+00  0.00000000E+00  0.00000000E+00  0.00000000E+00  0.00000000E+00
  0.00000000E+00  0.00000000E+00  0.00000000E+00  0.00000000E+00  0.00000000E+00
  0.00000000E+00  0.00000000E+00  0.00000000E+00  0.00000000E+00  0.00000000E+00
  0.00000000E+00  0.00000000E+00  0.00000000E+00  0.00000000E+00  0.00000000E+00
  0.00000000E+00  0.00000000E+00  0.00000000E+00  0.00000000E+00  0.00000000E+00
  0.00000000E+00  0.00000000E+00  0.00000000E+00  0.00000000E+00  0.00000000E+00
  0.00000000E+00  0.00000000E+00  0.00000000E+00  0.00000000E+00  0.00000000E+00
  0.00000000E+00  0.00000000E+00  0.00000000E+00  0.00000000E+00  0.00000000E+00
  0.00000000E+00  0.00000000E+00  0.00000000E+00  0.00000000E+00  0.00000000E+00
  0.00000000E+00  0.00000000E+00  0.00000000E+00  0.00000000E+00  0.00000000E+00
  0.00000000E+00  0.00000000E+00  0.00000000E+00  0.00000000E+00  0.00000000E+00
  0.00000000E+00  0.00000000E+00  0.00000000E+00  0.00000000E+00  0.00000000E+00
  0.00000000E+00  0.00000000E+00  0.00000000E+00  0.00000000E+00  0.00000000E+00
  0.00000000E+00  0.00000000E+00  0.00000000E+00  0.00000000E+00  0.00000000E+00
  0.00000000E+00  0.00000000E+00  0.00000000E+00  0.00000000E+00  0.00000000E+00
  0.00000000E+00  0.00000000E+00  0.00000000E+00  0.00000000E+00  0.00000000E+00
  0.00000000E+00  0.00000000E+00  0.00000000E+00  0.00000000E+00  0.00000000E+00
  0.00000000E+00  0.00000000E+00  0.00000000E+00  0.00000000E+00  0.00000000E+00
  0.00000000E+00  0.00000000E+00  0.00000000E+00  0.00000000E+00  0.00000000E+00
  0.00000000E+00  0.00000000E+00  0.00000000E+00  0.00000000E+00  0.00000000E+00
  0.00000000E+00  0.00000000E+00  0.00000000E+00  0.00000000E+00  0.00000000E+00
  0.00000000E+00  0.00000000E+00  0.00000000E+00  0.00000000E+00  0.00000000E+00
  0.00000000E+00  0.00000000E+00  0.00000000E+00  0.00000000E+00  0.00000000E+00
  0.00000000E+00  0.00000000E+00  0.00000000E+00  0.00000000E+00  0.00000000E+00
  0.00000000E+00  0.00000000E+00  0.00000000E+00  0.00000000E+00  0.00000000E+00
  0.00000000E+00  0.00000000E+00  0.00000000E+00  0.00000000E+00  0.00000000E+00
  0.00000000E+00  0.00000000E+00  0.00000000E+00  0.00000000E+00  0.00000000E+00
  0.00000000E+00  0.00000000E+00  0.00000000E+00  0.00000000E+00  0.00000000E+00
  0.00000000E+00  0.00000000E+00  0.00000000E+00  0.00000000E+00  0.00000000E+00
  0.00000000E+00  0.00000000E+00  0.00000000E+00  0.00000000E+00  0.00000000E+00
  0.00000000E+00  0.00000000E+00  0.00000000E+00  0.00000000E+00  0.00000000E+00
  0.00000000E+00  0.00000000E+00  0.00000000E+00  0.00000000E+00  0.00000000E+00
  0.00000000E+00  0.00000000E+00  0.00000000E+00  0.00000000E+00  0.00000000E+00
  0.00000000E+00  0.00000000E+00  0.00000000E+00  0.00000000E+00  0.00000000E+00
  0.00000000E+00  0.00000000E+00  0.00000000E+00  0.00000000E+00  0.00000000E+00
  0.00000000E+00  0.00000000E+00  0.00000000E+00  0.00000000E+00  0.00000000E+00
  0.00000000E+00  0.00000000E+00  0.00000000E+00  0.00000000E+00  0.00000000E+00
  0.00000000E+00  0.00000000E+00  0.00000000E+00  0.00000000E+00  0.00000000E+00
  0.00000000E+00  0.00000000E+00  0.00000000E+00  0.00000000E+00  0.00000000E+00
  0.00000000E+00  0.00000000E+00  0.00000000E+00  0.00000000E+00  0.00000000E+00
  0.00000000E+00  0.00000000E+00  0.00000000E+00  0.00000000E+00  0.00000000E+00
  0.00000000E+00  0.00000000E+00  0.00000000E+00  0.00000000E+00  0.00000000E+00
  0.00000000E+00  0.00000000E+00  0.00000000E+00  0.00000000E+00  0.00000000E+00
  0.00000000E+00  0.00000000E+00  0.00000000E+00  0.00000000E+00  0.00000000E+00
  0.00000000E+00  0.00000000E+00  0.00000000E+00  0.00000000E+00  0.00000000E+00
  0.00000000E+00  0.00000000E+00  0.00000000E+00  0.00000000E+00  0.00000000E+00
  0.00000000E+00  0.00000000E+00  0.00000000E+00  0.00000000E+00  0.00000000E+00
  0.00000000E+00  0.00000000E+00  0.00000000E+00  0.00000000E+00  0.00000000E+00
  0.00000000E+00  0.00000000E+00  0.00000000E+00  0.00000000E+00  0.00000000E+00
  0.00000000E+00  0.00000000E+00  0.00000000E+00  0.00000000E+00  0.00000000E+00
  0.00000000E+00  0.00000000E+00  0.00000000E+00  0.00000000E+00  0.00000000E+00
  0.00000000E+00  0.00000000E+00  0.00000000E+00  0.00000000E+00  0.00000000E+00
  0.00000000E+00  0.00000000E+00  0.00000000E+00  0.00000000E+00  0.00000000E+00
  0.00000000E+00  0.00000000E+00  0.00000000E+00  0.00000000E+00  0.00000000E+00
  0.00000000E+00  0.00000000E+00  0.00000000E+00  0.00000000E+00  0.00000000E+00
  0.00000000E+00  0.00000000E+00  0.00000000E+00  0.00000000E+00  0.00000000E+00
  0.00000000E+00  0.00000000E+00  0.00000000E+00  0.00000000E+00  0.00000000E+00
  0.00000000E+00  0.00000000E+00  0.00000000E+00  0.00000000E+00  0.00000000E+00
  0.00000000E+00  0.00000000E+00  0.00000000E+00  0.00000000E+00  0.00000000E+00
  0.00000000E+00  0.00000000E+00  0.00000000E+00  0.00000000E+00  0.00000000E+00
  0.00000000E+00  0.00000000E+00  0.00000000E+00  0.00000000E+00  0.00000000E+00
  0.00000000E+00  0.00000000E+00  0.00000000E+00  0.00000000E+00  0.00000000E+00
  0.00000000E+00  0.00000000E+00  0.00000000E+00  0.00000000E+00  0.00000000E+00
  0.00000000E+00  0.00000000E+00  0.00000000E+00  0.00000000E+00  0.00000000E+00
  0.00000000E+00  0.00000000E+00  0.00000000E+00  0.00000000E+00  0.00000000E+00
  0.00000000E+00  0.00000000E+00  0.00000000E+00  0.00000000E+00  0.00000000E+00
  0.00000000E+00  0.00000000E+00  0.00000000E+00  0.00000000E+00  0.00000000E+00
  0.00000000E+00  0.00000000E+00  0.00000000E+00  0.00000000E+00  0.00000000E+00
  0.00000000E+00  0.00000000E+00  0.00000000E+00  0.00000000E+00  0.00000000E+00
  0.00000000E+00  0.00000000E+00  0.00000000E+00  0.00000000E+00  0.00000000E+00
  0.00000000E+00  0.00000000E+00  0.00000000E+00  0.00000000E+00  0.00000000E+00
  0.00000000E+00  0.00000000E+00  0.00000000E+00  0.00000000E+00  0.00000000E+00
  0.00000000E+00  0.00000000E+00  0.00000000E+00  0.00000000E+00  0.00000000E+00
  0.00000000E+00  0.00000000E+00  0.00000000E+00  0.00000000E+00  0.00000000E+00
  0.00000000E+00  0.00000000E+00  0.00000000E+00  0.00000000E+00  0.00000000E+00
  0.00000000E+00  0.00000000E+00  0.00000000E+00  0.00000000E+00  0.00000000E+00
  0.00000000E+00  0.00000000E+00  0.00000000E+00  0.00000000E+00  0.00000000E+00
  0.00000000E+00  0.00000000E+00  0.00000000E+00  0.00000000E+00  0.00000000E+00
  0.00000000E+00  0.00000000E+00  0.00000000E+00  0.00000000E+00  0.00000000E+00
  0.00000000E+00  0.00000000E+00  0.00000000E+00  0.00000000E+00  0.00000000E+00
  0.00000000E+00  0.00000000E+00  0.00000000E+00  0.00000000E+00  0.00000000E+00
  0.00000000E+00  0.00000000E+00  0.00000000E+00  0.00000000E+00  0.00000000E+00
  0.00000000E+00  0.00000000E+00  0.00000000E+00  0.00000000E+00  0.00000000E+00
  0.00000000E+00  0.00000000E+00  0.00000000E+00  0.00000000E+00  0.00000000E+00
  0.00000000E+00  0.00000000E+00  0.00000000E+00  0.00000000E+00  0.00000000E+00
  0.00000000E+00  0.00000000E+00  0.00000000E+00  0.00000000E+00  0.00000000E+00
  0.00000000E+00  0.00000000E+00  0.00000000E+00  0.00000000E+00  0.00000000E+00
  0.00000000E+00  0.00000000E+00  0.00000000E+00  0.00000000E+00  0.00000000E+00
  0.00000000E+00  0.00000000E+00  0.00000000E+00  0.00000000E+00  0.00000000E+00
  0.00000000E+00  0.00000000E+00  0.00000000E+00  0.00000000E+00  0.00000000E+00
  0.00000000E+00  0.00000000E+00  0.00000000E+00  0.00000000E+00  0.00000000E+00
  0.00000000E+00  0.00000000E+00  0.00000000E+00  0.00000000E+00  0.00000000E+00
  0.00000000E+00  0.00000000E+00  0.00000000E+00  0.00000000E+00  0.00000000E+00
  0.00000000E+00  0.00000000E+00  0.00000000E+00  0.00000000E+00  0.00000000E+00
  0.00000000E+00  0.00000000E+00  0.00000000E+00  0.00000000E+00  0.00000000E+00
  0.00000000E+00  0.00000000E+00  0.00000000E+00  0.00000000E+00  0.00000000E+00
  0.00000000E+00  0.00000000E+00  0.00000000E+00  0.00000000E+00  0.00000000E+00
  0.00000000E+00  0.00000000E+00  0.00000000E+00  0.00000000E+00  0.00000000E+00
  0.00000000E+00  0.00000000E+00  0.00000000E+00  0.00000000E+00  0.00000000E+00
  0.00000000E+00  0.00000000E+00  0.00000000E+00  0.00000000E+00  0.00000000E+00
  0.00000000E+00  0.00000000E+00  0.00000000E+00  0.00000000E+00  0.00000000E+00
  0.00000000E+00  0.00000000E+00  0.00000000E+00  0.00000000E+00  0.00000000E+00
  0.00000000E+00  0.00000000E+00  0.00000000E+00  0.00000000E+00  0.00000000E+00
  0.00000000E+00  0.00000000E+00  0.00000000E+00  0.00000000E+00  0.00000000E+00
  0.00000000E+00  0.00000000E+00  0.00000000E+00  0.00000000E+00  0.00000000E+00
  0.00000000E+00  0.00000000E+00  0.00000000E+00  0.00000000E+00  0.00000000E+00
  0.00000000E+00  0.00000000E+00  0.00000000E+00  0.00000000E+00  0.00000000E+00
  0.00000000E+00  0.00000000E+00  0.00000000E+00  0.00000000E+00  0.00000000E+00
  0.00000000E+00  0.00000000E+00  0.00000000E+00  0.00000000E+00  0.00000000E+00
  0.00000000E+00  0.00000000E+00  0.00000000E+00  0.00000000E+00  0.00000000E+00
  0.00000000E+00  0.00000000E+00  0.00000000E+00  0.00000000E+00  0.00000000E+00
  0.00000000E+00  0.00000000E+00  0.00000000E+00  0.00000000E+00  0.00000000E+00
  0.00000000E+00  0.00000000E+00  0.00000000E+00  0.00000000E+00  0.00000000E+00
  0.00000000E+00  0.00000000E+00  0.00000000E+00  0.00000000E+00  0.00000000E+00
  0.00000000E+00  0.00000000E+00  0.00000000E+00  0.00000000E+00  0.00000000E+00
  0.00000000E+00  0.00000000E+00  0.00000000E+00  0.00000000E+00  0.00000000E+00
  0.00000000E+00  0.00000000E+00  0.00000000E+00  0.00000000E+00  0.00000000E+00
  0.00000000E+00  0.00000000E+00  0.00000000E+00  0.00000000E+00  0.00000000E+00
  0.00000000E+00  0.00000000E+00  0.00000000E+00  0.00000000E+00  0.00000000E+00
  0.00000000E+00  0.00000000E+00  0.00000000E+00  0.00000000E+00  0.00000000E+00
  0.00000000E+00  0.00000000E+00  0.00000000E+00  0.00000000E+00  0.00000000E+00
  0.00000000E+00  0.00000000E+00  0.00000000E+00  0.00000000E+00  0.00000000E+00
  0.00000000E+00  0.00000000E+00  0.00000000E+00  0.00000000E+00  0.00000000E+00
  0.00000000E+00  0.00000000E+00  0.00000000E+00  0.00000000E+00  0.00000000E+00
  0.00000000E+00  0.00000000E+00  0.00000000E+00  0.00000000E+00  0.00000000E+00
  0.00000000E+00  0.00000000E+00  0.00000000E+00  0.00000000E+00  0.00000000E+00
  0.00000000E+00  0.00000000E+00  0.00000000E+00  0.00000000E+00  0.00000000E+00
  0.00000000E+00  0.00000000E+00  0.00000000E+00  0.00000000E+00  0.00000000E+00
  0.00000000E+00  0.00000000E+00  0.00000000E+00  0.00000000E+00  0.00000000E+00
  0.00000000E+00  0.00000000E+00  0.00000000E+00  0.00000000E+00  0.00000000E+00
  0.00000000E+00  0.00000000E+00  0.00000000E+00  0.00000000E+00  0.00000000E+00
  0.00000000E+00  0.00000000E+00  0.00000000E+00  0.00000000E+00  0.00000000E+00
  0.00000000E+00  0.00000000E+00  0.00000000E+00  0.00000000E+00  0.00000000E+00
  0.00000000E+00  0.00000000E+00  0.00000000E+00  0.00000000E+00  0.00000000E+00
  0.00000000E+00  0.00000000E+00  0.00000000E+00  0.00000000E+00  0.00000000E+00
  0.00000000E+00  0.00000000E+00  0.00000000E+00  0.00000000E+00  0.00000000E+00
  0.00000000E+00  0.00000000E+00  0.00000000E+00  0.00000000E+00  0.00000000E+00
  0.00000000E+00  0.00000000E+00  0.00000000E+00  0.00000000E+00  0.00000000E+00
  0.00000000E+00  0.00000000E+00  0.00000000E+00  0.00000000E+00  0.00000000E+00
  0.00000000E+00  0.00000000E+00  0.00000000E+00  0.00000000E+00  0.00000000E+00
  0.00000000E+00  0.00000000E+00  0.00000000E+00  0.00000000E+00  0.00000000E+00
  0.00000000E+00  0.00000000E+00  0.00000000E+00  0.00000000E+00  0.00000000E+00
  0.00000000E+00  0.00000000E+00  0.00000000E+00  0.00000000E+00  0.00000000E+00
  0.00000000E+00  0.00000000E+00  0.00000000E+00  0.00000000E+00  0.00000000E+00
  0.00000000E+00  0.00000000E+00  0.00000000E+00  0.00000000E+00  0.00000000E+00
  0.00000000E+00  0.00000000E+00  0.00000000E+00  0.00000000E+00  0.00000000E+00
  0.00000000E+00  0.00000000E+00  0.00000000E+00  0.00000000E+00  0.00000000E+00
  0.00000000E+00  0.00000000E+00  0.00000000E+00  0.00000000E+00  0.00000000E+00
  0.00000000E+00  0.00000000E+00  0.00000000E+00  0.00000000E+00  0.00000000E+00
  0.00000000E+00  0.00000000E+00  0.00000000E+00  0.00000000E+00  0.00000000E+00
  0.00000000E+00  0.00000000E+00  0.00000000E+00  0.00000000E+00  0.00000000E+00
  0.00000000E+00  0.00000000E+00  0.00000000E+00  0.00000000E+00  0.00000000E+00
  0.00000000E+00  0.00000000E+00  0.00000000E+00  0.00000000E+00  0.00000000E+00
  0.00000000E+00  0.00000000E+00  0.00000000E+00  0.00000000E+00  0.00000000E+00
  0.00000000E+00  0.00000000E+00  0.00000000E+00  0.00000000E+00  0.00000000E+00
  0.00000000E+00  0.00000000E+00  0.00000000E+00  0.00000000E+00  0.00000000E+00
  0.00000000E+00  0.00000000E+00  0.00000000E+00  0.00000000E+00  0.00000000E+00
  0.00000000E+00  0.00000000E+00  0.00000000E+00  0.00000000E+00  0.00000000E+00
  0.00000000E+00  0.00000000E+00  0.00000000E+00  0.00000000E+00  0.00000000E+00
  0.00000000E+00  0.00000000E+00  0.00000000E+00  0.00000000E+00  0.00000000E+00
  0.00000000E+00  0.00000000E+00  0.00000000E+00  0.00000000E+00  0.00000000E+00
  0.00000000E+00  0.00000000E+00  0.00000000E+00  0.00000000E+00  0.00000000E+00
  0.00000000E+00  0.00000000E+00  0.00000000E+00  0.00000000E+00  0.00000000E+00
  0.00000000E+00  0.00000000E+00  0.00000000E+00  0.00000000E+00  0.00000000E+00
  0.00000000E+00  0.00000000E+00  0.00000000E+00  0.00000000E+00  0.00000000E+00
  0.00000000E+00  0.00000000E+00  0.00000000E+00  0.00000000E+00  0.00000000E+00
  0.00000000E+00  0.00000000E+00  0.00000000E+00  0.00000000E+00  0.00000000E+00
  0.00000000E+00  0.00000000E+00  0.00000000E+00  0.00000000E+00  0.00000000E+00
  0.00000000E+00  0.00000000E+00  0.00000000E+00  0.00000000E+00  0.00000000E+00
  0.00000000E+00  0.00000000E+00  0.00000000E+00  0.00000000E+00  0.00000000E+00
  0.00000000E+00  0.00000000E+00  0.00000000E+00  0.00000000E+00  0.00000000E+00
  0.00000000E+00  0.00000000E+00  0.00000000E+00  0.00000000E+00  0.00000000E+00
  0.00000000E+00  0.00000000E+00  0.00000000E+00  0.00000000E+00  0.00000000E+00
  0.00000000E+00  0.00000000E+00  0.00000000E+00  0.00000000E+00  0.00000000E+00
  0.00000000E+00  0.00000000E+00  0.00000000E+00  0.00000000E+00  0.00000000E+00
  0.00000000E+00  0.00000000E+00  0.00000000E+00  0.00000000E+00  0.00000000E+00
  0.00000000E+00  0.00000000E+00  0.00000000E+00  0.00000000E+00  0.00000000E+00
  0.00000000E+00  0.00000000E+00  0.00000000E+00  0.00000000E+00  0.00000000E+00
  0.00000000E+00  0.00000000E+00  0.00000000E+00  0.00000000E+00  0.00000000E+00
  0.00000000E+00  0.00000000E+00  0.00000000E+00  0.00000000E+00  0.00000000E+00
  0.00000000E+00  0.00000000E+00  0.00000000E+00  0.00000000E+00  0.00000000E+00
  0.00000000E+00  0.00000000E+00  0.00000000E+00  0.00000000E+00  0.00000000E+00
  0.00000000E+00  0.00000000E+00  0.00000000E+00  0.00000000E+00  0.00000000E+00
  0.00000000E+00  0.00000000E+00  0.00000000E+00  0.00000000E+00  0.00000000E+00
  0.00000000E+00  0.00000000E+00  0.00000000E+00  0.00000000E+00  0.00000000E+00
  0.00000000E+00  0.00000000E+00  0.00000000E+00  0.00000000E+00  0.00000000E+00
  0.00000000E+00  0.00000000E+00  0.00000000E+00  0.00000000E+00  0.00000000E+00
  0.00000000E+00  0.00000000E+00  0.00000000E+00  0.00000000E+00  0.00000000E+00
  0.00000000E+00  0.00000000E+00  0.00000000E+00  0.00000000E+00  0.00000000E+00
  0.00000000E+00  0.00000000E+00  0.00000000E+00  0.00000000E+00  0.00000000E+00
  0.00000000E+00  0.00000000E+00  0.00000000E+00  0.00000000E+00  0.00000000E+00
  0.00000000E+00  0.00000000E+00  0.00000000E+00  0.00000000E+00  0.00000000E+00
  0.00000000E+00  0.00000000E+00  0.00000000E+00  0.00000000E+00  0.00000000E+00
  0.00000000E+00  0.00000000E+00  0.00000000E+00  0.00000000E+00  0.00000000E+00
  0.00000000E+00  0.00000000E+00  0.00000000E+00  0.00000000E+00  0.00000000E+00
  0.00000000E+00  0.00000000E+00  0.00000000E+00  0.00000000E+00  0.00000000E+00
  0.00000000E+00  0.00000000E+00  0.00000000E+00  0.00000000E+00  0.00000000E+00
  0.00000000E+00  0.00000000E+00  0.00000000E+00  0.00000000E+00  0.00000000E+00
  0.00000000E+00  0.00000000E+00  0.00000000E+00  0.00000000E+00  0.00000000E+00
  0.00000000E+00  0.00000000E+00  0.00000000E+00  0.00000000E+00  0.00000000E+00
  0.00000000E+00  0.00000000E+00  0.00000000E+00  0.00000000E+00  0.00000000E+00
  0.00000000E+00  0.00000000E+00  0.00000000E+00  0.00000000E+00  0.00000000E+00
  0.00000000E+00  0.00000000E+00  0.00000000E+00  0.00000000E+00  0.00000000E+00
  0.00000000E+00  0.00000000E+00  0.00000000E+00  0.00000000E+00  0.00000000E+00
  0.00000000E+00  0.00000000E+00  0.00000000E+00  0.00000000E+00  0.00000000E+00
  0.00000000E+00  0.00000000E+00  0.00000000E+00  0.00000000E+00  0.00000000E+00
  0.00000000E+00  0.00000000E+00  0.00000000E+00  0.00000000E+00  0.00000000E+00
  0.00000000E+00  0.00000000E+00  0.00000000E+00  0.00000000E+00  0.00000000E+00
  0.00000000E+00  0.00000000E+00  0.00000000E+00  0.00000000E+00  0.00000000E+00
  0.00000000E+00  0.00000000E+00  0.00000000E+00  0.00000000E+00  0.00000000E+00
  0.00000000E+00  0.00000000E+00  0.00000000E+00  0.00000000E+00  0.00000000E+00
  0.00000000E+00  0.00000000E+00  0.00000000E+00  0.00000000E+00  0.00000000E+00
  0.00000000E+00  0.00000000E+00  0.00000000E+00  0.00000000E+00  0.00000000E+00
  0.00000000E+00  0.00000000E+00  0.00000000E+00  0.00000000E+00  0.00000000E+00
  0.00000000E+00  0.00000000E+00  0.00000000E+00  0.00000000E+00  0.00000000E+00
  0.00000000E+00  0.00000000E+00  0.00000000E+00  0.00000000E+00  0.00000000E+00
  0.00000000E+00  0.00000000E+00  0.00000000E+00  0.00000000E+00  0.00000000E+00
  0.00000000E+00  0.00000000E+00  0.00000000E+00  0.00000000E+00  0.00000000E+00
  0.00000000E+00  0.00000000E+00  0.00000000E+00  0.00000000E+00  0.00000000E+00
  0.00000000E+00  0.00000000E+00  0.00000000E+00  0.00000000E+00  0.00000000E+00
  0.00000000E+00  0.00000000E+00  0.00000000E+00  0.00000000E+00  0.00000000E+00
  0.00000000E+00  0.00000000E+00  0.00000000E+00  0.00000000E+00  0.00000000E+00
  0.00000000E+00  0.00000000E+00  0.00000000E+00  0.00000000E+00  0.00000000E+00
  0.00000000E+00  0.00000000E+00  0.00000000E+00  0.00000000E+00  0.00000000E+00
  0.00000000E+00  0.00000000E+00  0.00000000E+00  0.00000000E+00  0.00000000E+00
  0.00000000E+00  0.00000000E+00  0.00000000E+00  0.00000000E+00  0.00000000E+00
Gaussian Version                           C   N=           2
EM64W-G16RevA.03        
